LAMMPS (29 Oct 2020)
################################################################################################################
# Template input file to run umbrella sampling
# run 200000 steps0
# read from restart file
# deleted velocity line
# reset timestep to 0 befre running the simulation
################################################################################################################

################################################################################################################
# VARIABLES
################################################################################################################
clear
variable rcut        equal 17.5     #est. 3.5*diameter
variable epsilon     equal 0.8126   #unit conversion
variable sigma       equal 4.7
variable shift       equal 23.5     #center particle radius
variable epsilon_cp  equal 0.5067
variable sigma_cp    equal 5.2
variable epsilon_pp  equal 1.1926
variable sigma_pp    equal 4.7
variable bondKeq     equal 2.9876
variable bondReq1    equal 23.5
variable bondReq2    equal 4.7
variable dt          equal 4.0
variable startTemp   equal 275.0
variable stopTemp    equal 275.0
variable Tdamp       equal 100.0
variable springKeq   equal 35.0
variable velocity    equal -0.0001
variable springX     equal 200.0
variable springY     equal 0.0
variable springZ     equal 0.0
variable springReq   equal 0.0

################################################################################################################
# SETUP
################################################################################################################
units		real
atom_style	molecular
atom_modify     sort 0 0.0       #print out in frames in order

read_data       data.twoParticles
Reading data file ...
  orthogonal box = (0.0000000 0.0000000 0.0000000) to (1000.0000 1000.0000 1000.0000)
  2 by 2 by 2 MPI processor grid
  reading atoms ...
  12002 atoms
  scanning bonds ...
  600 = max bonds/atom
  reading bonds ...
  12000 bonds
Finding 1-2 1-3 1-4 neighbors ...
  special bond factors lj:    0.0      0.0      0.0     
  special bond factors coul:  0.0      0.0      0.0     
   600 = max # of 1-2 neighbors
   600 = max # of 1-3 neighbors
  1200 = max # of 1-4 neighbors
  1800 = max # of special neighbors
  special bonds CPU = 0.052 seconds
  read_data CPU = 0.085 seconds
velocity        all create ${startTemp} 4834834 rot yes mom yes dist gaussian        #turn off rotation and momentum of the particles
velocity        all create 275 4834834 rot yes mom yes dist gaussian        

#read_restart    generic.restart

pair_style	lj/expand ${rcut}
pair_style	lj/expand 17.5
pair_coeff      1 1 0 0 0
pair_coeff      1 2 ${epsilon} ${sigma} ${shift}
pair_coeff      1 2 0.8126 ${sigma} ${shift}
pair_coeff      1 2 0.8126 4.7 ${shift}
pair_coeff      1 2 0.8126 4.7 23.5
pair_coeff      1 3 ${epsilon} ${sigma} ${shift}
pair_coeff      1 3 0.8126 ${sigma} ${shift}
pair_coeff      1 3 0.8126 4.7 ${shift}
pair_coeff      1 3 0.8126 4.7 23.5
pair_coeff      2 2 ${epsilon} ${sigma} 0
pair_coeff      2 2 0.8126 ${sigma} 0
pair_coeff      2 2 0.8126 4.7 0
pair_coeff      2 3 ${epsilon_cp} ${sigma_cp} 0
pair_coeff      2 3 0.5067 ${sigma_cp} 0
pair_coeff      2 3 0.5067 5.2 0
pair_coeff      3 3 ${epsilon_pp} ${sigma_pp} 0
pair_coeff      3 3 1.1926 ${sigma_pp} 0
pair_coeff      3 3 1.1926 4.7 0
special_bonds   lj 0.0 1.0 1.0   #turn off LJ interaction for directly bonded atoms (1-2)
Finding 1-2 1-3 1-4 neighbors ...
  special bond factors lj:    0.0      1.0      1.0     
  special bond factors coul:  0.0      0.0      0.0     
   600 = max # of 1-2 neighbors
   600 = max # of 1-3 neighbors
  1200 = max # of 1-4 neighbors
  1800 = max # of special neighbors
  special bonds CPU = 0.050 seconds

bond_style      harmonic
bond_coeff      1 ${bondKeq} ${bondReq1}
bond_coeff      1 2.9876 ${bondReq1}
bond_coeff      1 2.9876 23.5
bond_coeff      2 ${bondKeq} ${bondReq2}
bond_coeff      2 2.9876 ${bondReq2}
bond_coeff      2 2.9876 4.7
bond_coeff      3 ${bondKeq} ${bondReq2}
bond_coeff      3 2.9876 ${bondReq2}
bond_coeff      3 2.9876 4.7
bond_coeff      4 ${bondKeq} ${bondReq2}
bond_coeff      4 2.9876 ${bondReq2}
bond_coeff      4 2.9876 4.7

neighbor	2.0 bin            #consider cutoff +2 as neighbor
neigh_modify	every 1 delay 0 check yes     #every x step//no delay//check the neighbor list to see if need to update

restart         10 nvt.a.restart nvt.b.restart  #print restart every 10 ?steps?

timestep	${dt}
timestep	4

################################################################################################################
# SIMULATION
################################################################################################################
group           centroid1 id 1           # define group names
1 atoms in group centroid1
group           centroid2 id 6002
1 atoms in group centroid2

fix		1 all nvt temp ${startTemp} ${stopTemp} ${Tdamp}            #last number is how aggressive we want to derive the T back
fix		1 all nvt temp 275 ${stopTemp} ${Tdamp}            
fix		1 all nvt temp 275 275 ${Tdamp}            
fix		1 all nvt temp 275 275 100            
fix             2 centroid1 smd cvel ${springKeq} ${velocity} couple centroid2 auto auto auto ${springReq}
fix             2 centroid1 smd cvel 35 ${velocity} couple centroid2 auto auto auto ${springReq}
fix             2 centroid1 smd cvel 35 -0.0001 couple centroid2 auto auto auto ${springReq}
fix             2 centroid1 smd cvel 35 -0.0001 couple centroid2 auto auto auto 0

thermo_style    custom step time ke pe temp press etotal f_1 f_2[1] f_2[2] f_2[3] f_2[4] f_2[5] f_2[6] f_2[7] # SMD fix computes a "vector" of numbers, have to print the individual elements, as thermo custom only prints scalar numbers (7 quantities described in manual)
thermo          200                  #give an output every x step

dump            1 all custom 200 twoParticles.lammpstrj id type element xu yu zu fx fy fz    #print every x step
dump_modify     1 element A B C     #give element names

run		400000
Neighbor list info ...
  update every 1 steps, delay 0 steps, check yes
  max neighbors/atom: 2000, page size: 100000
  master list distance cutoff = 43
  ghost atom cutoff = 43
  binsize = 21.5, bins = 47 47 47
  1 neighbor lists, perpetual/occasional/extra = 1 0 0
  (1) pair lj/expand, perpetual
      attributes: half, newton on
      pair build: half/bin/newton
      stencil: half/bin/3d/newton
      bin: standard
Per MPI rank memory allocation (min/avg/max) = 195.2 | 196.0 | 197.0 Mbytes
Step Time KinEng PotEng Temp Press TotEng f_1 f_2[1] f_2[2] f_2[3] f_2[4] f_2[5] f_2[6] f_2[7] 
       0            0    9837.4929   -33256.802          275 -0.046709234   -23419.309            0            0            0            0            0    199.95248    199.95288            0 
     200          800     9817.316   -33173.235    274.43597  0.030905517    -23355.92    -63.48263    2.7015793 0.00042638961 -0.00064240055    2.7015794    199.87248    199.95007   0.17159758 
     400         1600    9950.2538   -33227.665    278.15215  0.076459776   -23277.411   -144.61622    3.5674915 0.0013984905 -0.00028805826    3.5674918    199.79248    199.89481   0.42122495 
     600         2400    9925.2684   -33301.324     277.4537   0.13925637   -23376.055   -46.212381    1.4264295 -0.00017714037 -0.00053380624    1.4264296    199.71248    199.75363   0.65103321 
     800         3200    9955.7332   -33252.875    278.30532  0.022964385   -23297.142   -125.28106    2.2581669 -0.00025845596 0.00092728693    2.2581671    199.63248     199.6974   0.66846759 
    1000         4000    9726.7474   -33102.269    271.90419   -0.1169841   -23375.521   -43.581205    2.7043101 -0.00043126481 -0.00056513952    2.7043102    199.55248    199.63014   0.95438696 
    1200         4800    9826.5928   -33183.142     274.6953  -0.04291098   -23356.549   -62.860199    3.8339389 0.00062404847 -0.001412613    3.8339393    199.47248    199.58242    1.1295207 
    1400         5600    9913.8551   -33277.789    277.13465  0.076494273   -23363.934   -56.836002    5.6120578 -0.001206041 -0.00041754622     5.612058    199.39248    199.55322    1.5584842 
    1600         6400    9781.2777   -33291.819    273.42855  0.071126192   -23510.542     87.19455    9.3288809 0.00054233856 0.0029795514    9.3288814    199.31248    199.57942     2.134319 
    1800         7200    9738.4514   -33359.314    272.23137  0.067507202   -23620.862    197.55464    7.3272815 0.0028886712 1.3595174e-05    7.3272821    199.23248    199.44223    2.7067372 
    2000         8000    9787.1487   -33193.719    273.59267   0.11546383   -23406.571   -15.666939     12.46305 -0.0029281655 -0.0042553832    12.463052    199.15248    199.50897     3.492632 
    2200         8800    9902.3506   -33386.111    276.81305 -0.025601092   -23483.761    64.916375    14.706414 0.0041828529 0.0023417354    14.706415    199.07248    199.49306    4.6238037 
    2400         9600    9796.7187   -33508.899    273.86019 -0.070629674    -23712.18    294.77733    12.488801 0.0023350266 -0.0016788618    12.488801    198.99248     199.3497    5.7392531 
    2600        10400    9749.9417   -33518.847    272.55257 -0.023672591   -23768.905    347.69661    13.084925  0.001710191 0.0010989188    13.084925    198.91248    199.28673    6.6968852 
    2800        11200    9898.7095   -33414.959    276.71127   0.15579095    -23516.25    95.553234    6.9125478 -0.0053780584 0.0051222292    6.9125518    198.83248    199.03038    7.5329957 
    3000        12000    9904.0344   -33416.913    276.86012  0.040194124   -23512.879    94.817442    3.0344883 -0.0023653006 0.0030445746    3.0344908    198.75248    198.83958    7.9129654 
    3200        12800    9781.5398   -33435.624    273.43587 -0.056481992   -23654.084    239.70413    2.4020802 0.00014855507 0.0010550697    2.4020804    198.67248    198.74151    8.1487611 
    3400        13600     9826.204    -33429.37    274.68443 -0.061840133   -23603.166    188.40245   -5.3446565 0.0023418881 -0.0057140057     -5.34466    198.59248    198.44017    8.0395509 
    3600        14400    9801.2956   -33512.463    273.98813 -0.029400241   -23711.167    293.64774    -8.741054 0.0035893794 -0.0026629078   -8.7410552    198.51248    198.26313     7.571503 
    3800        15200    9782.7573   -33463.263    273.46991  0.018515599   -23680.506    260.43591   -12.418216  0.010179934 -0.0075832635   -12.418223    198.43248    198.07807    6.6055978 
    4000        16000     9760.061   -33383.221    272.83545  0.059808133    -23623.16    203.27973   -10.598027  0.006799334 -0.00071311966   -10.598029    198.35248    198.05008    5.6433812 
    4200        16800     9753.755   -33528.194    272.65917 -0.093555054   -23774.439    353.68037   -9.2526266 0.0027375256 -0.0029882937   -9.2526275    198.27248    198.00852     4.834149 
    4400        17600    9802.4037   -33466.026    274.01911   0.16029021   -23663.622    241.23248   -10.929739 0.0085415886 -0.00023554924   -10.929743    198.19248     197.8806    4.0586696 
    4600        18400    9965.3811   -33414.085    278.57502  -0.01658449   -23448.704    25.876466   -12.496671 0.0018128004 -0.0027305931   -12.496671    198.11248    197.75583    3.0024026 
    4800        19200    9795.1785   -33376.033    273.81713 -0.010645632   -23580.854    159.57514   -7.8665984 0.0031466049 -0.0018198795   -7.8665992    198.03248    197.80812    2.2361195 
    5000        20000    9871.9394   -33410.899    275.96293    0.1151754    -23538.96    116.27577   -9.7013702 0.0041366427 -0.0031975346   -9.7013716    197.95248     197.6757    1.5097402 
    5200        20800    9870.5575   -33325.433     275.9243 -0.048811806   -23454.875    31.978625   -6.8788893  0.003268702 -0.0011048537   -6.8788902    197.87248    197.67634   0.83924163 
    5400        21600    9824.5092   -33413.811    274.63705  0.044564792   -23589.302    164.89515   -5.7778436 0.0018733514 0.0007138806   -5.7778439    197.79248     197.6278   0.17505484 
    5600        22400    9892.3649   -33420.259    276.53391  -0.10024964   -23527.894    103.55921   -3.4590707 0.0010154102 -0.0018251133   -3.4590714    197.71248    197.61405 -0.066776812 
    5800        23200    9753.8714   -33493.565    272.66242  0.026064109   -23739.694    315.13973   -4.0844209 -0.0016064182 -0.00052148821   -4.0844213    197.63248    197.51618  -0.26605518 
    6000        24000    9844.5602   -33460.521    275.19756  0.062001395   -23615.961    191.20509   -4.2885976 0.0011210487 0.0009999076   -4.2885978    197.55248    197.43035  -0.69691675 
    6200        24800     9850.433    -33295.97    275.36173 -0.0059604785   -23445.537    20.609496    5.1491556 -0.0029752525 0.00068688975    5.1491565    197.47248       197.62  -0.70969611 
    6400        25600    9841.5576   -33387.555    275.11362  -0.01516781   -23545.998    122.66725    3.1026329 -0.0009076762 3.9820571e-05     3.102633    197.39248    197.48152  -0.47078578 
    6600        26400    9708.6386   -33274.236    271.39797  0.030393038   -23565.597    143.71262    2.6210807 -0.0019886144 -0.00068142403    2.6210816    197.31248    197.38777    -0.235128 
    6800        27200    9784.8528   -33337.417    273.52849 -0.091800751   -23552.565    130.79766    3.1692427 -0.0030376064 -0.00024940831    3.1692442    197.23248    197.32343   0.15087355 
    7000        28000    9705.3087    -33403.91    271.30489 0.0031159092   -23698.601    275.23368    6.9595587 -0.0060451313 0.0011146208    6.9595614    197.15248    197.35172   0.49651217 
    7200        28800    9633.8132     -33439.3    269.30628   0.03353738   -23805.487     378.7025     12.36092 -0.0032491089 -0.0047090585    12.360921    197.07248    197.42605     1.206047 
    7400        29600    9790.2775   -33397.971    273.68013 -0.023126133   -23607.694    181.75254    11.308632 -0.0078795867 -0.0033761401    11.308635    196.99248    197.31598    2.1136093 
    7600        30400    9849.2636   -33542.824    275.32904 -0.049198194   -23693.561    271.16349    7.4077476 -0.0048004365 -0.0074648399    7.4077529    196.91248    197.12453    2.9655855 
    7800        31200    9753.2183   -33399.172    272.64417 -0.065745569   -23645.954    224.77587    8.7356275 -0.0050954907 -0.0083841648     8.735633    196.83248    197.08247    3.6144038 
    8000        32000    9811.9269    -33312.54    274.28532 -0.063088101   -23500.613    79.594777    5.8072298 -0.0041965593 -0.007013376    5.8072356    196.75248     196.9188    4.1778875 
    8200        32800      9799.54   -33294.331    273.93905  0.015930558   -23494.791    72.038892    1.3885257 -0.00056025352 -0.0016845482    1.3885268    196.67248    196.71255    4.4859562 
    8400        33600      9890.32   -33440.224    276.47674  0.006228254   -23549.904    125.84257    9.0525871 -0.006409596 -0.0081558976     9.052593    196.59248    196.85152    4.8716288 
    8600        34400    9781.2522   -33599.692    273.42783  0.028250826    -23818.44    396.46975    8.1734547 -0.0049006534 -0.0090162492    8.1734611    196.51248    196.74641    5.6384517 
    8800        35200    9762.7739   -33521.412    272.91129 -0.0064238908   -23758.638     337.8477    7.4774746 -0.0061308851 -0.0093228669     7.477483    196.43248    196.64652    6.1535724 
    9000        36000     9863.182   -33440.003    275.71812 -0.021284561   -23576.821    159.00056    6.9785668 -0.0023970593 -0.0098158498    6.9785741    196.35248    196.55227    6.8112824 
    9200        36800     9802.141   -33484.511    274.01176 -0.011685575    -23682.37    266.01394    1.7596968 -0.0018841699 -0.0013193008    1.7596983    196.27248    196.32316    7.2434106 
    9400        37600    9792.6925    -33390.26    273.74764 -0.022979601   -23597.567    180.31697    1.5214204 -0.0013809354 -0.0011863668    1.5214215    196.19248    196.23635    7.4339643 
    9600        38400    9842.7078   -33432.622    275.14578  0.072129009   -23589.914    172.03567    3.6303435 -0.0016409857 -0.0037904364    3.6303458    196.11248     196.2166    7.6215173 
    9800        39200    9776.7182   -33696.437    273.30109 -0.097894405   -23919.719    501.65678    3.3191937 -0.0021103036 -0.0035074269    3.3191962    196.03248    196.12771    7.9396864 
   10000        40000    9752.1254   -33413.658    272.61361   0.06593253   -23661.532    243.92116     -2.47396 0.0016760787 0.0014729589    -2.473961    195.95248    195.88219    7.8774482 
   10200        40800    9801.4961   -33417.142    273.99374  0.022539794   -23615.646    199.14025    1.3208843 0.00078405603 -0.0013261465    1.3208852    195.87248    195.91062    7.8701519 
   10400        41600    9893.6252   -33489.948    276.56914  -0.02694256   -23596.322    179.90531    -1.808739 -0.0012051602 0.0032832068   -1.8087424    195.79248     195.7412    7.8228931 
   10600        42400      9786.14   -33531.402    273.56447   0.01260949   -23745.262    328.88576   -6.0032465 -0.002040842  0.011475247   -6.0032578    195.71248    195.54136    7.4938567 
   10800        43200    9819.0607   -33527.287    274.48474  0.016772607   -23708.227    291.18611   -6.4231284 -0.00056279701  0.012462099   -6.4231405    195.63248    195.44936    7.0023698 
   11000        44000    9799.0234   -33389.574    273.92461  0.073794853   -23590.551    170.57997   -9.8024135 0.0024112139  0.015840955   -9.8024266    195.55248    195.27281    6.4862188 
   11200        44800    9850.6496   -33491.933    275.36779 -0.031842885   -23641.283    220.32166   -10.744812 1.3833216e-05  0.023537031   -10.744838    195.47248    195.16588    5.7723634 
   11400        45600    9920.7896   -33420.605     277.3285 -0.024103361   -23499.815    78.436504   -12.304652 -0.0057435406  0.027746379   -12.304685    195.39248    195.04132    4.8273215 
   11600        46400    9812.1263   -33485.862    274.29089  0.039795896   -23673.735    253.98526    -7.938571 -0.0027163963  0.015561717   -7.9385867    195.31248    195.08606    4.0086108 
   11800        47200    9786.7577   -33475.012    273.58174  -0.04194058   -23688.254    267.86868   -10.029034 0.00041596225  0.026529176   -10.029069    195.23248    194.94633    3.4000742 
   12000        48000    9787.9764   -33425.471     273.6158 -0.069735394   -23637.494    214.80553   -9.3919087 -0.0035264826  0.027148197   -9.3919486    195.15248    194.88454    2.5793653 
   12200        48800    9823.4272   -33657.788     274.6068 0.0052662835   -23834.361    408.05417   -8.4971066 0.00038652102    0.0250856   -8.4971436    195.07248     194.8301    1.7823222 
   12400        49600    9748.1345   -33539.497    272.50205  0.059664478   -23791.363    365.61496   -5.9905786 0.00054939567  0.016394339   -5.9906011    194.99248    194.82172    1.2735641 
   12600        50400    9803.6498    -33477.48    274.05394   0.05550571    -23673.83     249.5657  -0.34229786  0.000158231 0.0006663834  -0.34229855    194.91248     194.9031   0.82547757 
   12800        51200    9898.3851   -33490.654     276.7022 -0.053136107   -23592.269    170.11232 -0.048813596 1.8584227e-05 0.00010234591 -0.048813707    194.83248    194.83148   0.83025002 
   13000        52000     9821.432   -33573.071    274.55103 -0.048597212   -23751.639    328.69205   -2.4657767 0.0022122791 0.0040333892    -2.465781    194.75248    194.68243   0.76575475 
   13200        52800    9770.1692   -33442.202    273.11801  0.063552009   -23672.033    246.36571   -3.5654734 0.00055093652 0.0043726941   -3.5654761    194.67248    194.57101   0.62224632 
   13400        53600    9783.9981   -33494.888    273.50459 -0.0041604794   -23710.889    285.53923   -2.4504928 -0.0015703217 0.0042634192    -2.450497    194.59248    194.52286   0.41969894 
   13600        54400    9761.7033   -33541.733    272.88136  0.050594722    -23780.03    356.19983   -1.4066856 -0.00069614986 0.0022550648   -1.4066876    194.51248    194.47269    0.3200305 
   13800        55200    9678.4352     -33423.1    270.55366 -0.0009058639   -23744.665     322.8619   -3.3777417 -0.0029741283  0.002394466   -3.3777439    194.43248    194.33637  0.060558677 
   14000        56000    9906.1731   -33415.083     276.9199 -0.033581005    -23508.91    86.766307   0.58163035 0.00043515159 -0.0005500967   0.58163077    194.35248     194.3695  -0.12703494 
   14200        56800    9759.5131   -33655.154    272.82013    0.0361293   -23895.641    469.98175    8.2328352 0.0057331727   -0.0124589    8.2328466    194.27248     194.5081   0.29794711 
   14400        57600    9909.4524   -33488.225    277.01158   0.13505928   -23578.773    151.67058    7.3879524  0.008421057 -0.0090080704    7.3879627    194.19248    194.40396   0.84024108 
   14600        58400    9928.3712   -33561.129    277.54044 0.0028414166   -23632.758    207.07208    7.2172524 0.0066872738 -0.0087632065    7.2172609    194.11248    194.31909    1.3866893 
   14800        59200    9916.3049   -33575.809    277.20313 -0.051127404   -23659.504    237.34138    10.566263 0.0088343714 -0.012715285    10.566274    194.03248    194.33477    2.1245009 
   15000        60000    9916.0303   -33431.688    277.19546 -0.054947077   -23515.657    94.489705    7.8262803 0.0053360859 -0.012780053    7.8262925    193.95248    194.17649    2.8425128 
   15200        60800     9863.179   -33599.952    275.71804  0.023161797   -23736.773    314.53487    4.2710814 0.00012662601 -0.009158145    4.2710913    193.87248    193.99491     3.431154 
   15400        61600    9812.1086   -33565.427     274.2904  0.060217539   -23753.318    329.70363    2.2071154 -0.00031142412 -0.0054619873    2.2071222    193.79248    193.85594    3.6910813 
   15600        62400    9886.1981   -33491.444    276.36152  0.073672501   -23605.245    182.50012    4.7764576 0.00084601397 -0.011074535    4.7764705    193.71248    193.84935    3.9077746 
   15800        63200     9847.746   -33492.032    275.28662 -0.0046089473   -23644.286     224.4451   0.26211034 -4.4508401e-05 -0.00078595975   0.26211153    193.63248    193.64037    4.1065931 
   16000        64000    9873.7526   -33403.605    276.01361 -0.028199366   -23529.852    111.36932   -0.1539431 -1.7473906e-05 0.00038909049  -0.15394359    193.55248    193.54848    4.1210314 
   16200        64800    9752.2519   -33498.436    272.61715 -0.031309779   -23746.184    326.62144   0.84232059 -0.00018629539 -0.0021858795   0.84232344    193.47248    193.49694    4.1786525 
   16400        65600    9883.4773   -33486.269    276.28546  0.069591563   -23602.792    179.53431   0.44208118 -0.00017673476 -0.00093644925   0.44208221    193.39248    193.40551    4.3127417 
   16600        66400    9766.1189   -33559.818    273.00479   0.13335831   -23793.699    368.66928   -2.0736335 0.00055361492 0.0055429155    -2.073641    193.31248    193.25363    4.1245346 
   16800        67200    9941.7134   -33665.068    277.91341 -0.022675814   -23723.355    299.95709   -3.4744515 0.0025898328 0.0064523045   -3.4744584    193.23248    193.13361    3.9559683 
   17000        68000    9847.8114   -33654.161    275.28845  0.042183005   -23806.349    385.84752    3.2573398 -0.0012559767 -0.0048059255    3.2573436    193.15248    193.24595    3.9858828 
   17200        68800     9811.346   -33496.007    274.26908 -0.067844741   -23684.661    265.23153    2.8924479 -0.0038162288 -0.0040923451    2.8924533    193.07248    193.15552    4.3419838 
   17400        69600    9851.3652   -33448.015    275.38779  0.069912122    -23596.65    176.32719   0.12134585 -4.8315335e-05 -0.00016320665   0.12134597    192.99248    192.99635    4.4231214 
   17600        70400    9936.4856   -33555.915    277.76727 -0.0032142005   -23619.429    197.27468    4.6292157 -0.0050947003 -0.0083196613     4.629226    192.91248    193.04514     4.651618 
   17800        71200    9787.2701   -33456.576    273.59606   0.12256688   -23669.306    247.51835    3.9261979 -0.0036126509 -0.0075216126    3.9262068    192.83248    192.94506    4.9935017 
   18000        72000    9765.9373   -33554.336    272.99972 -0.0029672164   -23788.399    368.89431    2.0314072 -0.0026491666 -0.0044413471    2.0314137    192.75248    192.81092    5.2883327 
   18200        72800     9859.124   -33434.534    275.60468 -0.014550907    -23575.41    158.08127   0.33680572 -0.00031139907 -0.00096760261   0.33680725    192.67248     192.6825    5.3273894 
   18400        73600    9933.2582   -33499.665    277.67705  0.041897697   -23566.406    148.26291   -3.9335856 0.0041388765 0.0090821883   -3.9335982    192.59248    192.48049     5.256887 
   18600        74400    9873.9435   -33443.431    276.01895  0.075890687   -23569.488    149.39385   -3.4249746 0.0030107524 0.0077761376   -3.4249847    192.51248    192.41502    4.9242783 
   18800        75200    9832.5249   -33611.237    274.86112   0.11484519   -23778.712    357.21248    2.4040599 0.00068141555 -0.005196899    2.4040656    192.43248    192.50157     4.968894 
   19000        76000    9842.0649   -33608.783    275.12781   0.15789247   -23766.718    345.40985   -1.2682182 0.0003990479 0.0034708229    -1.268223    192.35248    192.31664    4.9496266 
   19200        76800    9825.5156   -33605.993    274.66518 -0.074333644   -23780.478    359.44627  -0.90082796 6.3084642e-05 0.0020644586  -0.90083033    192.27248    192.24714    4.8611973 
   19400        77600    9900.9595   -33606.459    276.77416  -0.04583575   -23705.499    284.47216   -1.2386096 0.00072632512 0.0036097555   -1.2386151    192.19248    192.15749       4.7922 
   19600        78400    9978.2016   -33691.493    278.93341  0.049500261   -23713.291    292.06705   -2.4309825  0.002506719 0.0064630276   -2.4309924    192.11248    192.04342    4.6254815 
   19800        79200    9744.1556   -33688.568    272.39082 -0.017261371   -23944.413    522.07067   -1.5587736 0.0017970458  0.003684913    -1.558779    192.03248    191.98834    4.5116794 
   20000        80000    9831.4128    -33627.17    274.83003  0.062100008   -23795.757    373.70224   -5.9582407 0.0095452601  0.012485926   -5.9582615    191.95248    191.78264     4.227609 
   20200        80800    9865.9047   -33681.372    275.79423  0.058625746   -23815.468    393.99549   -5.3100903 0.0092987546  0.010483461   -5.3101088    191.87248    191.72116     3.680756 
   20400        81600    9922.8746   -33616.908    277.38679 -0.027573622   -23694.034    273.24425   -3.6142858 0.0064681644 0.0065925822   -3.6142976    191.79248    191.68961    3.3322242 
   20600        82400    9818.5807   -33558.269    274.47132 -0.0061987102   -23739.688    318.57087   -3.1181244 0.0060696676 0.0052777074   -3.1181347    191.71248    191.62379    3.0463015 
   20800        83200    9747.4199   -33528.946    272.48207 -0.019301508   -23781.526    358.77334   -7.3046691  0.017399217  0.010319377   -7.3046971    191.63248    191.42417    2.5986245 
   21000        84000    9872.5898   -33650.847    275.98111  0.075683536   -23778.257    352.58257   -5.5572828  0.013954292 0.0075391896   -5.5573055    191.55248     191.3941    2.0938097 
   21200        84800    9920.4524   -33614.379    277.31907  0.070789563   -23693.926    266.12401   -4.6995606 0.0096863953 0.0070792183    -4.699576    191.47248     191.3386    1.7221676 
   21400        85600    9827.7451   -33744.936    274.72751 -0.019516129   -23917.191    492.18559    -4.195638 0.0087292505 0.0095989148   -4.1956581    191.39248      191.273    1.2408318 
   21600        86400    9878.7472   -33478.773    276.15323  -0.12341441   -23600.025    177.77575   -2.0053106  0.003358823 0.0045542795   -2.0053186    191.31248    191.25558    1.0275702 
   21800        87200    9763.7804   -33529.194    272.93942 -0.0090031871   -23765.414    344.20314   -2.8234157  0.005351534 0.0078311598   -2.8234316    191.23248    191.15221   0.90230227 
   22000        88000    9825.0818   -33676.602    274.65306  0.013230447    -23851.52    426.51036   -4.2333326 0.0085695123  0.011665299   -4.2333573    191.15248    191.03192   0.58358737 
   22200        88800    9772.4063   -33759.464    273.18055  0.079909706   -23987.058    560.65699    3.5641764 -0.0086456495 -0.010528734    3.5642024    191.07248    191.17471    0.4983424 
   22400        89600    9825.2796   -33663.949    274.65859  0.022839692    -23838.67     414.8239     1.700689 -0.0035488485 -0.0049327737    1.7006998    190.99248    191.04147   0.66990207 
   22600        90400    9779.6388   -33712.942    273.38273   -0.1080889   -23933.303    511.64588    1.6929196 -0.0037770467 -0.0032086018    1.6929269    190.91248    190.96125   0.86453356 
   22800        91200    9855.1503   -33752.801     275.4936 0.0097569509    -23897.65    475.19396    3.5341285 -0.0075752052 -0.0078980729    3.5341455    190.83248    190.93385    1.1224965 
   23000        92000     9757.622   -33653.683    272.76727 0.0069041939   -23896.061    472.93246    3.1895848 -0.0076899133 -0.0038860686    3.1895965    190.75248    190.84401    1.4301494 
   23200        92800    9875.1017    -33691.54    276.05133  0.034913019   -23816.439    393.16278   0.78503288 -0.0018444294 -0.0010634946   0.78503576    190.67248    190.69531    1.6335679 
   23400        93600    9809.3659   -33570.825    274.21373  0.097016696   -23761.459    339.14757     3.453985 -0.010049453 -0.0055612182    3.4540041    190.59248    190.69156    1.7558841 
   23600        94400    9864.0942   -33539.936    275.74362  0.028015213   -23675.842    255.85046    4.8827156 -0.014980376 -0.010227013    4.8827493    190.51248    190.65239    2.0982011 
   23800        95200    9745.9669   -33643.498    272.44146  -0.12029254   -23897.531    474.86599    10.527031 -0.030031331 -0.022562308    10.527098    190.43248    190.73365    2.6923663 
   24000        96000    9890.6861   -33521.118    276.48698   0.11604694   -23630.432    206.91656    8.9132195 -0.030198508 -0.021051548    8.9132955    190.35248    190.60754    3.4102565 
   24200        96800    9870.8703   -33678.039    275.93304  0.058522442   -23807.169    384.09141    7.6392647 -0.022058639 -0.015119308    7.6393115    190.27248    190.49114    4.1414413 
   24400        97600    9860.2338   -33517.914    275.63571  0.017098966    -23657.68     237.6036    6.6161413 -0.015042477 -0.016908021      6.61618    190.19248    190.38191    4.6904704 
   24600        98400    9898.0449   -33589.154    276.69269 -0.093189217   -23691.109    275.62222    8.3546033 -0.022742061 -0.015134615     8.354648    190.11248    190.35158     5.289314 
   24800        99200      9795.78   -33555.291    273.83395  -0.16251399   -23759.511    345.82704    5.6352774 -0.013343195 -0.011696342    5.6353054    190.03248    190.19389    5.8071373 
   25000       100000    9794.8333   -33608.762    273.80748 -0.073504478   -23813.929    397.95636    4.5118663 -0.011433961 -0.0092341632    4.5118903    189.95248    190.08179    6.3488611 
   25200       100800    9837.7181   -33697.471    275.00629  0.040227027   -23859.753     441.3264    2.4601267 -0.0061926666 -0.0041000202    2.4601379    189.87248    189.94317    6.6580198 
   25400       101600     9814.043    -33729.16    274.34447    0.0374538   -23915.117    495.69607   0.55469902 -0.0015227856 -0.00019210219   0.55470114    189.79248    189.80873    6.7444305 
   25600       102400    9800.0071   -33637.168    273.95211 -0.026359677   -23837.161     418.4649   0.93829331 -0.0030612713 -0.00068838852   0.93829856    189.71248    189.73969    6.7662942 
   25800       103200    9743.4822   -33529.465      272.372 -0.053053449   -23785.983    367.71424            0            0            0            0    189.63248    189.63348     6.927646 
   26000       104000    9819.7376   -33612.822    274.50366  0.028851758   -23793.085    375.03935    3.4679664 -0.010935966 -0.0066159447      3.46799    189.55248    189.65196    7.1492616 
   26200       104800    9798.4655   -33610.566    273.90902 -0.029913212   -23812.101      395.224   -4.9122174  0.013334645 0.0079986157    -4.912242    189.47248    189.33253    7.0681604 
   26400       105600    9812.4066   -33543.645    274.29873 0.0088603476   -23731.238    314.52768  -0.18214337 0.00043506555 0.00046003765  -0.18214447    189.39248    189.38767    6.7234995 
   26600       106400    9848.4657   -33529.612    275.30674  0.078703312   -23681.146    262.82875   -2.2947519 0.0058371453 0.0062267315   -2.2947678    189.31248    189.24731    6.7223372 
   26800       107200    9921.7937    -33582.78    277.35657   0.15720744   -23660.986    240.23953   -7.3558993  0.018172873  0.013913617   -7.3559349    189.23248    189.02271    6.2503354 
   27000       108000     9776.072   -33542.177    273.28302 -0.024798433   -23766.105    345.27208   -11.300759  0.030077811   0.02461886   -11.300826    189.15248       188.83    5.5044111 
   27200       108800    9917.1592   -33697.707    277.22701 -0.018675905   -23780.548    360.29056   -10.629439  0.025162943  0.027745452   -10.629505    189.07248    188.76918     4.540797 
   27400       109600    9837.6565   -33718.863    275.00457 -0.033659454   -23881.206    459.67602   -9.2609037  0.018276817  0.024141956   -9.2609532    188.99248    188.72828    3.7606865 
   27600       110400    9845.2378   -33656.112     275.2165   0.11823444   -23810.874    388.28464   -5.1560878  0.011393943  0.013450634   -5.1561179    188.91248    188.76556    3.1689101 
   27800       111200     9887.788   -33790.157    276.40596  0.043307072   -23902.369    478.40453   -4.0242761  0.012408866  0.011301082   -4.0243111    188.83248     188.7179    2.8318469 
   28000       112000    9919.4953   -33626.772    277.29232  -0.01058409   -23707.276    283.71151   -4.1274279 0.0097249208  0.012481566   -4.1274582    188.75248    188.63495    2.5096466 
   28200       112800    9846.8875   -33650.344    275.26262 0.0094984525   -23803.457    380.35133   -2.9839446 0.0075865658 0.0085165896   -2.9839664    188.67248    188.58762    2.3362037 
   28400       113600    9842.5386   -33742.682    275.14105  -0.01994988   -23900.143    477.96706    -2.048939 0.0052275333 0.0055305854   -2.0489532    188.59248    188.53434    2.1583293 
   28600       114400    9747.1234   -33684.388    272.47379  0.072764637   -23937.265    512.79558   -1.6593177 0.0036962144 0.0045914676   -1.6593282    188.51248    188.46547    1.9815821 
   28800       115200    9864.2127    -33802.44    275.74693   0.12446947   -23938.227    512.70165  -0.60942155 0.0016876836 0.0014722445  -0.60942567    188.43248    188.41547    1.7191597 
   29000       116000    9758.9154   -33688.695    272.80342  0.051680858   -23929.779    505.32304   -2.3404835 0.0062439333 0.0066034947   -2.3405011    188.35248    188.28601    1.6688026 
   29200       116800      9789.78   -33618.154    273.66622 -0.064488878   -23828.374    405.33654   -1.0359048 0.0027227026 0.0027655115   -1.0359121    188.27248    188.24328    1.6584034 
   29400       117600    9702.8282   -33705.427    271.23555 -0.074410153   -24002.599    579.60941   0.38961556 -0.0010393484 -0.00096951237   0.38961816    188.19248    188.20401    1.6281484 
   29600       118400       9901.9   -33656.858    276.80045 0.0083189999   -23754.958    330.29612    3.5357117 -0.0085661506 -0.011239774      3.53574    188.11248     188.2139    1.8529629 
   29800       119200    9860.0542   -33875.919    275.63068  0.020165215   -24015.865    589.24578    1.2776661 -0.003299645 -0.0033031415    1.2776746    188.03248    188.06938    2.0275866 
   30000       120000    9815.5277   -33674.465    274.38598   0.21291031   -23858.937    432.36125   0.76031371 -0.0021945639 -0.0021739961   0.76031999    187.95248     187.9746    2.1381997 
   30200       120800    9768.0875   -33543.779    273.05982 -0.037310052   -23775.692    352.12468   -5.6403161  0.013682875  0.016704325   -5.6403574    187.87248    187.71172    1.8846289 
   30400       121600    9918.0878   -33480.386    277.25297 -0.0030588957   -23562.298    142.61052   -1.1852749 0.0037234575 0.0034346636   -1.1852857    187.79248    187.75901    1.5619821 
   30600       122400    9790.3123   -33549.947     273.6811 -0.073812542   -23759.635    339.96056    -3.114715 0.0094836793 0.0094079622   -3.1147436    187.71248    187.62389    1.3456153 
   30800       123200    9865.4678   -33620.447    275.78202 -0.056861594   -23754.979    332.17828    -2.233399 0.0080337082 0.0063139086   -2.2334224    187.63248    187.56907       1.1263 
   31000       124000    9913.6503   -33741.148    277.12893 0.0098395422   -23827.498    400.37065  0.079510056 -0.00032971748 -0.0001851991  0.079510955    187.55248    187.55515    1.0454746 
   31200       124800    9881.3224    -33800.04    276.22522   0.10772501   -23918.718    490.96132  -0.94635878 0.0035547726 0.0026060798  -0.94636905    187.47248    187.44584    0.9959223 
   31400       125600    9774.4041   -33701.648     273.2364 0.0091271817   -23927.244    501.07956    3.2281255 -0.013590687 -0.0086861527    3.2281658    187.39248    187.48511     1.025439 
   31600       126400    9893.2287   -33548.728    276.55805  0.022563773   -23655.499    232.49379    2.5420868 -0.010425166 -0.0055548264    2.5421142    187.31248    187.38551    1.3961313 
   31800       127200     9826.697   -33552.682    274.69821  -0.12791055   -23725.985     304.5305    4.1094221  -0.01733617  -0.00855198    4.1094676    187.23248    187.35029    1.6530158 
   32000       128000    9782.7973   -33705.366    273.47103 -0.0038990712   -23922.569    498.49795    5.5855863  -0.02177342 -0.011378354    5.5856403    187.15248    187.31247    2.0266979 
   32200       128800    9816.1718   -33634.621    274.40399  0.039491648   -23818.449    391.17437    7.6063126 -0.026432234 -0.019050033    7.6063824    187.07248     187.2902    2.5905011 
   32400       129600    9787.4597   -33714.004    273.60136   0.14507005   -23926.544    500.19339     3.841227 -0.013336126 -0.0077643212     3.841258    186.99248    187.10263    3.1309162 
   32600       130400    9816.4141   -33604.355    274.41076 -0.0028306171    -23787.94    363.64056    6.6790734 -0.027372016 -0.016862718    6.6791508    186.91248    187.10371    3.5505308 
   32800       131200     9977.652    -33487.18    278.91805 0.0090232462   -23509.528    88.509825    6.2657276 -0.026245951 -0.014093966    6.2657984    186.83248     187.0119    4.1501144 
   33000       132000    9784.4045   -33385.803    273.51595 -0.029161164   -23601.399    181.05712    7.1646714 -0.029864077  -0.01877983    7.1647583    186.75248    186.95759    4.7435758 
   33200       132800    9831.8678   -33544.078    274.84275  0.016584109    -23712.21    291.25456    7.9336337 -0.034794358 -0.025132117    7.9337498    186.67248    186.89956    5.2832607 
   33400       133600    9802.3124   -33478.746    274.01655   0.15550254   -23676.434    255.31404    4.8826717 -0.020331028 -0.014258206    4.8827348    186.59248    186.73238    5.7742864 
   33600       134400    9807.7503   -33653.412    274.16857 0.0029636278   -23845.662    425.98786   -1.2390646 0.0045279098  0.002950561   -1.2390764    186.51248    186.47748    5.9728615 
   33800       135200    9909.0502   -33520.247    277.00033 -0.097350421   -23611.197    192.44356  -0.64632125  0.002467053 0.0017324509  -0.64632828    186.43248    186.41441    5.9247718 
   34000       136000    9687.8762    -33494.39    270.81757 -0.025109837   -23806.514    388.17077     2.194275 -0.0068616654 -0.0047485312    2.1942908    186.35248    186.41557    5.8981554 
   34200       136800    9817.4334   -33554.248    274.43925  0.036804858   -23736.814    316.12346    2.1507345 -0.0077040447 -0.0066637918    2.1507586    186.27248    186.33433    6.0285422 
   34400       137600    9788.6778   -33714.231    273.63541  0.089460747   -23925.553    505.03867  -0.48215291 0.0015831247 0.0011673907  -0.48215693    186.19248     186.1791    6.2228586 
   34600       138400    9959.7597   -33618.409    278.41788 0.0029817701   -23658.649    238.32328   -4.1877295  0.012945673 0.0091640059   -4.1877596    186.11248    185.99323    6.0829527 
   34800       139200    9862.5913    -33528.35    275.70161  0.030610553   -23665.758    246.60251   -2.8624926   0.01086842 0.0077695175   -2.8625238    186.03248    185.95109    5.6800347 
   35000       140000    9860.5918   -33560.803    275.64571  0.032214986   -23700.211    281.60653   -9.1490929  0.035660418  0.026414567   -9.1492005    185.95248    185.69147    5.3125373 
   35200       140800    9855.9328   -33486.441    275.51547  0.073936774   -23630.509    212.62558   -5.8518756  0.020992359  0.018649109    -5.851943    185.87248    185.70568    4.6852817 
   35400       141600    9839.3635    -33619.92    275.05229 -0.039726129   -23780.557    361.22764    -4.467501   0.01469352    0.0153483   -4.4675515    185.79248    185.66523    4.3702935 
   35600       142400    9901.6066   -33688.131    276.79225  0.058476211   -23786.524    363.36829   -6.7903877  0.026173748   0.02627986    -6.790489    185.71248    185.51886    3.7966769 
   35800       143200    9753.7261    -33652.01    272.65836 -0.058073984   -23898.284    473.11864   -4.8709041   0.01605864   0.02126864    -4.870977    185.63248    185.49371    3.2868383 
   36000       144000    9829.6547    -33740.35    274.78089   0.10743404   -23910.696    485.97882    -4.478006  0.017503971  0.017680075   -4.4780751    185.55248    185.42493    2.9954551 
   36200       144800    9968.1263   -33662.309    278.65176 0.0024041843   -23694.183    270.56256   -1.3933895 0.0051415794 0.0055951139   -1.3934102    185.47248    185.43307    2.7144569 
   36400       145600    9844.5464   -33527.891    275.19718   0.05791209   -23683.345    262.03621   -0.6219521 0.0023540823 0.0028067115  -0.62196289    185.39248    185.37511    2.6078105 
   36600       146400    9836.4198   -33607.762       274.97 -0.070410712   -23771.342    350.21768   -1.0669056 0.0043324937 0.0051472075   -1.0669268    185.31248    185.28239    2.4761093 
   36800       147200    9845.7076   -33596.845    275.22964 -0.0069433091   -23751.137    327.37236    -2.032216 0.0075979568 0.0088844984   -2.0322496    185.23248    185.17481    2.2754452 
   37000       148000    9924.0134   -33724.512    277.41862  0.050172306   -23800.498    373.71228   -3.7096943   0.01266312  0.015522998   -3.7097484    185.15248    185.04689    2.0410276 
   37200       148800     9852.398   -33662.061    275.41666  0.029455745   -23809.663    383.25874    1.4915807 -0.0040625653 -0.0070119166    1.4916027    185.07248     185.1155    1.9196352 
   37400       149600    9897.0054   -33719.221    276.66363 -0.041369159   -23822.215    397.39045    -2.127462 0.0060239637 0.0093154755   -2.1274909    184.99248    184.93209    1.9274458 
   37600       150400    9884.3456    -33652.84    276.30973 -0.060504754   -23768.494    345.06634    1.4008452  -0.00429867 -0.0062836688    1.4008659    184.91248     184.9529    1.8442405 
   37800       151200    9753.9318   -33669.075    272.66411 -0.059832137   -23915.143    490.95915    3.5429823 -0.0085116125 -0.012266654    3.5430138    184.83248    184.93411    2.0337002 
   38000       152000    10009.771   -33791.939     279.8159  0.033495903   -23782.168    356.53238    5.9814397 -0.018745514 -0.019992957    5.9815025    184.75248    184.92378    2.4362784 
   38200       152800    9871.0378   -33637.346    275.93772 -0.042838631   -23766.308     340.5415    4.6580179 -0.0094447627 -0.016341784    4.6580561    184.67248    184.80597    2.8258479 
   38400       153600    9771.8945    -33743.15    273.16625   0.02366257   -23971.255    546.59018    4.6624689    -0.011833 -0.017777847    4.6625178    184.59248    184.72609     3.278386 
   38600       154400    9874.7788   -33666.709     276.0423 -0.032359992    -23791.93    370.33664    5.2225494 -0.014689708 -0.024699693    5.2226285    184.51248     184.6621    3.6875405 
   38800       155200    9926.5554   -33591.518    277.48968  0.072860143   -23664.962    244.84662    2.4501449 -0.0053689771 -0.0098044838    2.4501704    184.43248    184.50288    4.0144957 
   39000       156000    9878.0049   -33632.069    276.13248 -0.029397325   -23754.065     333.6337  -0.18227332 0.00046300874 0.00072972034  -0.18227537    184.35248    184.34767     4.130331 
   39200       156800    9893.3219   -33617.329    276.56066  0.034740331   -23724.007    302.44809    3.8740198 -0.009114778 -0.014315804     3.874057    184.27248    184.38357    4.1469547 
   39400       157600    9928.2822   -33729.504    277.53795 -0.014900731   -23801.222      378.732  -0.12601411 0.00024998359 0.00046566163  -0.12601522    184.19248    184.18928    4.2741666 
   39600       158400    9961.3181   -33619.597    278.46144  0.057706741   -23658.278    233.56477  -0.39867029 0.00086004906 0.0014357525  -0.39867381    184.11248    184.10149    4.1654481 
   39800       159200    9928.4043    -33639.49    277.54136  0.038896813   -23711.085    287.09405    3.7360472 -0.0069053192 -0.014077226    3.7360801    184.03248    184.13962    4.4161354 
   40000       160000    9814.8199   -33563.945    274.36619  0.013861037   -23749.125    327.52798    2.0818247 -0.0037234585 -0.0073060621    2.0818409    183.95248    184.01236     4.592647 
   40200       160800     9833.803   -33680.087    274.89685  -0.11536131   -23846.284    424.95243    1.1343124 -0.0026573812 -0.0041889297    1.1343233    183.87248    183.90529    4.6428312 
   40400       161600    9798.0837    -33726.96    273.89835  0.054775844   -23928.876    506.83403   -1.9929007 0.0046490112 0.0060282947   -1.9929152    183.79248    183.73594    4.6316326 
   40600       162400    9714.3749   -33668.759    271.55833  0.011957606   -23954.384    531.97977   -2.2311929 0.0061365235 0.0069578073   -2.2312122    183.71248    183.64913    4.4092537 
   40800       163200    9789.4788    -33713.43     273.6578  -0.10069027   -23923.951    500.97612   -2.0587774 0.0069864395  0.005730947   -2.0587973    183.63248    183.57406    4.2240799 
   41000       164000    9819.3627   -33635.973    274.49318  0.080132498    -23816.61    394.02606    -3.289541 0.0098947499  0.010233937   -3.2895718    183.55248    183.45889    3.9735709 
   41200       164800    9859.0574   -33589.228    275.60282  0.011631702    -23730.17    308.65615    1.9587583 -0.006933029 -0.0062497631    1.9587806    183.47248    183.52884    3.9847557 
   41400       165600    9833.9356   -33700.548    274.90056 -0.046580319   -23866.613    445.62218    5.8769212 -0.022376402 -0.024310644    5.8770141    183.39248    183.56079    4.3769273 
   41600       166400    9964.6448   -33670.037    278.55444  0.084990558   -23705.392    285.23286     4.008628 -0.016670439 -0.017868599    4.0087025    183.31248    183.42741     4.721046 
   41800       167200    9874.5202   -33684.562    276.03507 0.0036118081   -23810.042    388.79705   -2.3683571 0.0082427863  0.011191185   -2.3683979    183.23248    183.16521    4.8241353 
   42000       168000    9775.5827   -33529.904    273.26934  0.013457099   -23754.322    332.11897    1.6087859 -0.0050386227 -0.0072534265    1.6088101    183.15248    183.19884    4.8834026 
   42200       168800    9792.8954   -33783.384    273.75331  0.015000262   -23990.488    567.09808    4.6287084 -0.012547257 -0.022119866    4.6287783    183.07248    183.20513    5.0672981 
   42400       169600    9840.4979   -33903.488      275.084 -0.015005781    -24062.99    638.74749   0.50244982 -0.0010978782 -0.0022691072   0.50245614    182.99248    183.00723    5.2254515 
   42600       170400    9708.5549   -33547.337    271.39563  0.069181352   -23838.782    414.81036   -9.2475343  0.021794503  0.036774758   -9.2476331    182.91248    182.64866    4.9070081 
   42800       171200    9876.3557   -33469.011    276.08638 0.0073233748   -23592.656    173.43661   -5.0369068  0.012183324  0.019716773   -5.0369601    182.83248    182.68896    4.2773937 
   43000       172000     9817.685   -33527.387    274.44628  -0.17614696   -23709.702    291.41185   -3.8764079 0.0077350125   0.01474651   -3.8764437    182.75248    182.64212    4.0020425 
   43200       172800    9830.1305   -33475.512    274.79419 -0.076007654   -23645.381    224.95379   -3.2313772 0.0072978122  0.012241097   -3.2314087    182.67248    182.58055    3.7210647 
   43400       173600    9767.9271   -33597.774    273.05534   0.11713762   -23829.847    406.59375   -4.5366665 0.0077053911  0.015512201   -4.5366996    182.59248    182.46326    3.3095203 
   43600       174400    9769.5537   -33716.283    273.10081 -0.010267175    -23946.73    522.83991   -2.3938625 0.0058315274 0.0066851121   -2.3938789    182.51248    182.44448    3.0713311 
   43800       175200    9742.9587   -33633.807    272.35737  0.050717672   -23890.849    466.51149   -3.9777521  0.011921319  0.012187113   -3.9777886    182.43248    182.31923    2.7966227 
   44000       176000    9833.6292   -33634.591    274.89199  0.050908407   -23800.961    377.06764    -5.016783  0.013022735  0.011542774   -5.0168132    182.35248    182.20954    2.4989447 
   44200       176800     9822.267   -33487.702    274.57437 -0.021874599   -23665.435    242.07702   -2.8847232 0.0087455577 0.0089184711   -2.8847502    182.27248    182.19046    2.2115854 
   44400       177600    9855.9757   -33495.716    275.51667 -0.016179944   -23639.741    217.95143   0.65060946 -0.0026495919 -0.0019259276    0.6506177    182.19248    182.21147    2.1316234 
   44600       178400    9921.0101   -33565.661    277.33466  0.042583404   -23644.651    221.49409   0.39495417 -0.0016047092 -0.0012992244   0.39495957    182.11248    182.12416    2.0950658 
   44800       179200    9799.2315   -33487.486    273.93043  0.063981629   -23688.255    266.01985   -1.2613859 0.0057069695 0.0039798269   -1.2614051    182.03248    181.99684     2.102617 
   45000       180000    9746.6372   -33577.084     272.4602 -0.076896696   -23830.447    406.27964    2.8477794 -0.012150847 -0.010748678    2.8478256    181.95248    182.03424    2.2120813 
   45200       180800    9851.2455   -33580.188    275.38444 -0.003734492   -23728.942    303.34855    2.6829555  -0.01150388 -0.008624699     2.682994    181.87248    181.94954    2.4343599 
   45400       181600    9709.0125   -33493.019    271.40842   0.06018381   -23784.007     358.3851  -0.86653751 0.0041086491 0.0030274435  -0.86655254    181.79248    181.76812    2.4506439 
   45600       182400    9936.6413   -33650.968    277.77162 0.0015720345   -23714.326    289.77499    2.1541215 -0.0080423852 -0.0087642729    2.1541543    181.71248    181.77443    2.3865989 
   45800       183200    9721.8851   -33478.261    271.76827 -0.015473061   -23756.376    335.44036   -0.2735534 0.0010559002 0.0012908651  -0.27355848    181.63248    181.62506    2.5902736 
   46000       184000    9918.4834   -33402.198    277.26403 -0.077141809   -23483.715    63.415709   0.36181403 -0.0014718832 -0.0016190774   0.36182065    181.55248    181.56322    2.4901682 
   46200       184800    9897.3823   -33713.055    276.67417 -0.022596765   -23815.673    392.18086    2.6560386 -0.0090547547 -0.011119392    2.6560773    181.47248    181.54877    2.5899454 
   46400       185600    9906.9316   -33791.753    276.94111  0.026075309   -23884.821    457.88346    3.0241208 -0.0098698159 -0.012819744    3.0241641    181.39248    181.47928    2.8855092 
   46600       186400    9819.2358   -33749.011    274.48964   0.11364811   -23929.776    502.84314    2.4578414 -0.006544997 -0.011088275    2.4578751    181.31248     181.3831    3.0740923 
   46800       187200    9689.7519   -33585.946    270.87001 -0.050055508   -23896.194     472.1092    2.1157349 -0.0067413202 -0.0085102859    2.1157628    181.23248    181.29333    3.2448435 
   47000       188000    9749.2581   -33443.628    272.53346 -0.071095284    -23694.37    272.40772   -1.3870159 0.0052108761 0.0043059871   -1.3870324    181.15248    181.11325    3.2787376 
   47200       188800    9791.7954   -33567.548    273.72256   0.02903797   -23775.752    353.61069   -2.1186863 0.0093042191 0.0083214421   -2.1187231    181.07248    181.01234    3.1460933 
   47400       189600    9841.9222    -33618.17    275.12382  0.086924426   -23776.248     353.4307    0.6530664 -0.0031565481  -0.00207766   0.65307733    180.99248    181.01154    3.1437507 
   47600       190400      9737.98   -33619.206    272.21819  0.012675935   -23881.226    456.98081   -2.5732381  0.011896142 0.0092232487   -2.5732821    180.91248    180.83936    3.0131595 
   47800       191200    9849.6281    -33627.88    275.33923  0.026646705   -23778.252    354.95642   -2.7489947  0.015978304  0.009398286   -2.7490572    180.83248    180.75433    2.7481807 
   48000       192000    9862.6071   -33638.887    275.70205 -0.052212567    -23776.28    353.26135    -2.430733  0.011968502 0.0091321473   -2.4307796    180.75248    180.68343      2.54232 
   48200       192800    9881.6429    -33563.04    276.23418  0.065021491   -23681.397    257.62775    1.5190838 -0.0066540824 -0.0058853579    1.5191098    180.67248    180.71628    2.5252928 
   48400       193600    9900.3358   -33611.376    276.75673  0.077890158    -23711.04    286.85404    3.5954721 -0.015497471 -0.017559095    3.5955483    180.59248    180.69561    2.7280292 
   48600       194400    9857.4624    -33687.74    275.55823  -0.10835757   -23830.277    406.69959   0.14599261 -0.00066641144 -0.00078055111   0.14599621    180.51248    180.51705      2.83216 
   48800       195200    9903.6836   -33637.409    276.85031 -0.071082619   -23733.725    311.01429   0.72505683 -0.0028558072 -0.0038520316   0.72507269    180.43248    180.45359    2.8925088 
   49000       196000    9831.4341   -33564.186    274.83063  0.027565791   -23732.752    309.54689    1.3935275 -0.0052988813 -0.0073523242     1.393557    180.35248    180.39269    2.9789594 
   49200       196800    9726.9379   -33674.685    271.90951 -0.014438046   -23947.747    525.23755    1.4198435 -0.004848837 -0.007261953    1.4198703    180.27248    180.31345    3.0876202 
   49400       197600    9824.8937   -33587.264     274.6478 -0.025043483    -23762.37     338.4327    4.8195291 -0.017941874 -0.023604573    4.8196203    180.19248    180.33058    3.3396851 
   49600       198400    9640.2005    -33759.32    269.48483 -0.012135505    -24119.12    694.48472    2.0515974 -0.0076590654 -0.011317819    2.0516429    180.11248     180.1715    3.6214532 
   49800       199200    9785.2239   -33644.804    273.53886   0.08831958    -23859.58    434.62757    6.1752656 -0.020354062 -0.033089465    6.1753878    180.03248    180.20932    3.9592286 
   50000       200000     9935.563   -33661.708    277.74148  -0.09098982   -23726.145    303.94698    3.5509783 -0.013109238 -0.021363015    3.5510668    179.95248    180.05434    4.3188042 
   50200       200800    9818.7629    -33763.19    274.47642 -0.068815803   -23944.427    523.46024  -0.31984132  0.001180971 0.0018570973  -0.31984889    179.87248    179.86374    4.4706819 
   50400       201600     9749.159    -33719.95    272.53069 -0.088307113    -23970.79     548.3948   -4.6860123  0.019851372  0.023271625   -4.6861121    179.79248    179.65899    4.1931573 
   50600       202400    9867.1782   -33551.645    275.82983  -0.01333204   -23684.467    260.93355   -5.0777928  0.016264307  0.022893426   -5.0778705    179.71248     179.5678    3.7675378 
   50800       203200    9754.1064   -33804.171    272.66899  0.030720823   -24050.064    627.24453   -3.3054501  0.012267379  0.016317742   -3.3055132    179.63248    179.53843    3.5398181 
   51000       204000    9856.5325   -33596.139    275.53224 -0.0077871873   -23739.607    317.25639  -0.22007906 0.00075884429 0.0010765226    -0.220083    179.55248    179.54659    3.3057005 
   51200       204800     9752.663   -33639.966    272.62864  0.013657827   -23887.303    465.00742   -1.2625398  0.003399256 0.0070750309   -1.2625642    179.47248     179.4368    3.1026399 
   51400       205600    9805.4081   -33615.462    274.10309 -0.043738869   -23810.054    386.18676   -1.6439761 0.0053653792 0.0083328445    -1.644006    179.39248    179.34591    2.9272262 
   51600       206400    9802.6367   -33764.276    274.02562  0.019524984    -23961.64    537.11263  -0.35345849 0.0010418635 0.0017376565  -0.35346429    179.31248    179.30278    2.8879988 
   51800       207200    9772.4148    -33656.02    273.18079  0.015239182   -23883.605    459.79579  -0.32584035 0.0011046506 0.0016025722  -0.32584616    179.23248    179.22357    2.9138538 
   52000       208000     9897.244   -33705.053     276.6703 -0.022040408   -23807.809     385.9852   -1.4778677 0.0052642199 0.0076734799    -1.477897    179.15248    179.11065    2.9452313 
   52200       208800    9761.9815   -33605.222    272.88913  -0.00505871   -23843.241    422.96298    0.3986759 -0.0016671187 -0.0022097036   0.39868551    179.07248    179.08427    2.7801375 
   52400       209600    9784.6667   -33553.654    273.52328 0.0068374213   -23768.987     347.7811   -1.0800584 0.0045672097 0.0059785753   -1.0800846    178.99248    178.96202     2.726527 
   52600       210400    9800.8603   -33758.987    273.97596 -0.062950093   -23958.127    535.61641   0.69907209 -0.0026363211 -0.003264437   0.69908469    178.91248    178.93285    2.7790614 
   52800       211200     10017.67   -33799.319    280.03672  0.082400195   -23781.649    357.20768   0.78249971 -0.0032333569 -0.0032176278   0.78251301    178.83248    178.85524     2.750419 
   53000       212000    9929.1756   -33717.116    277.56292    0.1254624    -23787.94    362.68072   0.29053371 -0.0011938551 -0.0010896297   0.29053821    178.75248    178.76118    2.8421697 
   53200       212800    9818.8977   -33762.449    274.48019   0.01063515   -23943.551     519.5276   0.58747921 -0.0026022584 -0.0020147836   0.58748843    178.67248    178.68966    2.9467901 
   53400       213600    9772.4379   -33622.912    273.18143 -0.048126062   -23850.474    429.20295  -0.36260091   0.00144137 0.0010898994  -0.36260542    178.59248    178.58252    3.0066677 
   53600       214400    9881.5764   -33559.372    276.23232  0.013816873   -23677.796    256.99971   -2.2519143 0.0094524512 0.0072607303   -2.2519458    178.51248    178.44854    2.9308588 
   53800       215200     9790.851   -33652.771    273.69616 -0.023680903    -23861.92    439.98524   0.71390531 -0.0028386106 -0.0021211795    0.7139141    178.43248    178.45328    2.8084873 
   54000       216000    9874.8634    -33770.52    276.04466 -0.048634978   -23895.657    472.78941    2.7757292 -0.010915307 -0.0085638056    2.7757639    178.35248    178.43219    3.0032038 
   54200       216800    9842.2708   -33725.791    275.13356  0.039823252    -23883.52    459.75378    2.4330334 -0.011686288 -0.010568421    2.4330844    178.27248    178.34239    3.2250777 
   54400       217600    9781.6616   -33594.485    273.43928 -0.048557208   -23812.823    390.49318  -0.28385011 0.0014347637 0.0014064237  -0.28385722    178.19248    178.18477    3.3783702 
   54600       218400    9700.8797   -33554.631    271.18108  -0.10339846   -23853.751    434.56024   0.88918726 -0.0050131718 -0.0045881563   0.88921323    178.11248    178.13828    3.2932705 
   54800       219200         9879   -33544.355     276.1603 0.00065972901   -23665.355    246.09919    4.2060229  -0.02352755   -0.0251119    4.2061637    178.03248    178.15305     3.514074 
   55000       220000    9942.3163   -33652.775    277.93026 -0.016404214   -23710.458    287.29376    3.7943155  -0.02063297 -0.024332426    3.7944496    177.95248    178.06129     3.974421 
   55200       220800     9830.165   -33659.422    274.79515    0.1650786   -23829.257    404.74002   -1.2293669 0.0068007976 0.0069383497   -1.2294053    177.87248    177.83775    4.0238379 
   55400       221600    9819.0654   -33669.232    274.48487  0.063455752   -23850.166    427.02693    1.8694574 -0.010488266 -0.012037678    1.8695256    177.79248    177.84629    4.0169746 
   55600       222400    9895.1227   -33654.328      276.611   -0.0896359   -23759.205    340.00036    2.8453108 -0.014819138 -0.018053697    2.8454067    177.71248    177.79418     4.162739 
   55800       223200     9882.911   -33663.729    276.26963 -0.033818725   -23780.818    362.15955    1.9755667 -0.010468156 -0.012112639    1.9756316    177.63248    177.68932    4.4418206 
   56000       224000    9738.2227   -33582.291    272.22497   0.04681632   -23844.069    422.25858    5.8300844 -0.028193157 -0.035834292    5.8302627    177.55248    177.71946    4.6652121 
   56200       224800    9809.9468    -33816.81    274.22997   0.05096275   -24006.863    583.50314    1.0105554 -0.0053025648 -0.0056396275     1.010585    177.47248    177.50175    5.0325747 
   56400       225600    9971.2506   -33580.232     278.7391 -0.0025165519   -23608.981    185.73051    1.4305072 -0.0070203653 -0.0076659929     1.430545    177.39248    177.43375    5.0841666 
   56600       226400    9924.5425   -33816.444    277.43341 -0.042830256   -23891.901     471.3321   -1.7853199 0.0083568196  0.010463134   -1.7853702    177.31248    177.26187    5.0839577 
   56800       227200    9833.6169   -33527.131    274.89165 -0.036454031   -23693.514    274.91455   -1.5809042 0.0078571217 0.0092259705   -1.5809507    177.23248    177.18771    4.9800773 
   57000       228000    9730.1496   -33587.362     271.9993  -0.14880047   -23857.213    437.10442   -1.6133964 0.0088606331 0.0082471819   -1.6134418    177.15248    177.10678    4.8473223 
   57200       228800    9746.5194   -33625.519     272.4569  0.070991312   -23878.999     455.7586   -4.6557954  0.026514779  0.025942322   -4.6559432    177.07248    176.93985    4.6121091 
   57400       229600    9820.1696   -33629.752    274.51574  0.021334646   -23809.582    386.56517   -3.6274573  0.021323805  0.018793564   -3.6275687    176.99248    176.88923    4.3670965 
   57600       230400    9950.6958   -33765.516     278.1645  0.026526822    -23814.82    392.90973   -4.0880889  0.022445065  0.019092497   -4.0881951    176.91248    176.79607    4.0083607 
   57800       231200    9886.7545    -33539.02    276.37707 -0.042101924   -23652.266    230.11066   -7.0966068   0.04666592  0.038680256   -7.0968656    176.83248    176.63011     3.479101 
   58000       232000     9796.179   -33581.489     273.8451   0.15292219    -23785.31    362.82138   -5.3908953  0.034542711  0.033540539   -5.3911103    176.75248    176.59885    3.0957145 
   58200       232800    9763.9243   -33717.192    272.94344 -0.033664166   -23953.268    529.81243   -0.6636592 0.0039264361 0.0038336693  -0.66368188    176.67248    176.65392     2.833878 
   58400       233600     9668.376   -33655.677    270.27246 -0.086096726   -23987.301    564.41027     1.887206 -0.011164168 -0.011155386    1.8872719    176.59248     176.6468    2.8227922 
   58600       234400    9712.4691   -33588.003    271.50505 -0.051441619   -23875.534    452.12098    4.9464741 -0.032772191 -0.026196781    4.9466521    176.51248    176.65421    2.9960999 
   58800       235200    9846.4133   -33723.492    275.24936 -0.073678221   -23877.079    455.67732   -1.2676231 0.0078454449 0.0059007392   -1.2676611    176.43248    176.39666    3.1371047 
   59000       236000    9897.1677     -33639.3    276.66817  0.064551535   -23742.132    320.21495  -0.21521474 0.0012417783 0.00089836409   -0.2152202    176.35248    176.34673    3.1449561 
   59200       236800     9811.066   -33722.552    274.26125  0.021614696   -23911.486    489.38761    2.1891783 -0.011817039 -0.011007369    2.1892378    176.27248    176.33543     3.253642 
   59400       237600    9835.4362   -33733.284    274.94251 -0.034203143   -23897.848    475.99522   -2.0416866  0.011125347 0.0077901691   -2.0417317    176.19248    176.13454    3.2074657 
   59600       238400    9864.1345    -33701.81    275.74475   0.14503815   -23837.675    416.20504   -4.6780989  0.024565516  0.022410353    -4.678217    176.11248    175.97921    2.9897999 
   59800       239200    9755.9113   -33772.333    272.71945 0.0055515251   -24016.422     595.1586   -5.6617221  0.030669749  0.026074138   -5.6618652    176.03248    175.87111    2.6145658 
   60000       240000      9740.75   -33589.536    272.29562  0.026549504   -23848.786    425.81433   -2.7951247  0.014870611  0.013645853   -2.7951976    175.95248    175.87302    2.2409382 
   60200       240800    9809.4726   -33600.465    274.21671  0.030055409   -23790.992    366.89676   -3.4820124  0.020402652  0.016719075   -3.4821123    175.87248    175.77339    1.9751918 
   60400       241600    9812.6356   -33697.959    274.30513 -0.083606171   -23885.323    459.94401  -0.65470893 0.0034700194 0.0038102722  -0.65472921    175.79248    175.77417    1.7552376 
   60600       242400    9884.4017   -33761.872     276.3113   0.03648571    -23877.47    453.37866    2.3940775 -0.012983788 -0.014506273    2.3941566    175.71248    175.78128    2.0541947 
   60800       243200    9829.4925   -33688.469    274.77636 -0.049778693   -23858.977    436.09835   -1.2462524 0.0075899889 0.0070102491   -1.2462953    175.63248    175.59727    2.0168823 
   61000       244000    9762.5353   -33787.025    272.90461 -0.0059356908    -24024.49     600.8369  -0.20060813 0.0012498905 0.0010838073  -0.20061496    175.55248    175.54715    2.0050981 
   61200       244800    9865.0064   -33701.652    275.76912  0.019151809   -23836.646    412.10529   0.71576858 -0.0044844666 -0.0041927042    0.7157949    175.47248    175.49333    1.9964786 
   61400       245600    9859.2725   -33780.292    275.60883  0.042895098   -23921.019     497.2875    1.5634265 -0.0092024879 -0.0082516953    1.5634754    175.39248    175.43755    2.1771878 
   61600       246400    9893.9143   -33720.106    276.57722  0.015700179   -23826.192    401.54689    2.9663486  -0.01917407 -0.016788355    2.9664581    175.31248    175.39763    2.4257454 
   61800       247200    9913.6814   -33766.401    277.12979 -0.018386427    -23852.72    428.23495    3.6944983 -0.023408637 -0.020319308    3.6946283    175.23248    175.33844    2.7557519 
   62000       248000    9867.0476    -33724.04    275.82618  -0.08445959   -23856.992    434.08056    5.9555505 -0.040070077 -0.029943847    5.9557605    175.15248    175.32304    3.0431572 
   62200       248800    9755.6534   -33526.187    272.71224 -0.021515271   -23770.533    348.39221   0.50753782 -0.0031914716 -0.0029294692    0.5075563    175.07248    175.08738    3.4211937 
   62400       249600    9861.0744   -33575.217     275.6592 -0.063364151   -23714.143    292.19042    4.9548161 -0.029201852 -0.027384788    4.9549778    174.99248    175.13445    3.6738915 
   62600       250400    9818.3301   -33607.176    274.46432 -0.050181145   -23788.845    368.61374     3.690378  -0.02214422 -0.021007249    3.6905042    174.91248    175.01832      4.01846 
   62800       251200    9809.4964   -33636.638    274.21738   0.06386694   -23827.142    404.99002   -3.0433032  0.016939964  0.018095669   -3.0434041    174.83248    174.74592    3.9250323 
   63000       252000     9833.147   -33704.691    274.87851  0.043767658   -23871.544    447.37585    2.5957748 -0.014884263 -0.013292962    2.5958515    174.75248    174.82705    3.9140936 
   63200       252800    9767.5262    -33542.18    273.04413  0.071868828   -23774.653    351.52554    3.3304625 -0.020487325 -0.018272068    3.3305757    174.67248    174.76804     4.189223 
   63400       253600    9900.9704   -33524.416    276.77447 -0.044486923   -23623.446    203.24998    3.7686687 -0.021272887 -0.017653834    3.7687701    174.59248    174.70056    4.4550609 
   63600       254400    9817.7641   -33586.825     274.4485 -0.046313952   -23769.061    349.31415    5.6792227 -0.034179042 -0.025572311    5.6793831    174.51248    174.67515    4.7200719 
   63800       255200    9921.3449   -33563.983    277.34402 -0.034564063   -23642.638    221.90553    3.9484067 -0.024829709 -0.017463848    3.9485234    174.43248    174.54569    5.0495089 
   64000       256000    9884.2836   -33766.489      276.308  0.037221776   -23882.206    458.58989    8.1741514 -0.045558204 -0.040458408    8.1743785    174.35248    174.58643    5.7007979 
   64200       256800    9783.4873   -33577.613    273.49031  0.033836935   -23794.126    372.78274    3.6181328 -0.022073503 -0.018787206    3.6182489    174.27248    174.37626     6.089323 
   64400       257600     9863.899   -33495.432    275.73816 -0.039280513   -23631.533    213.58597    4.1502344 -0.025937753 -0.016793944    4.1503495    174.19248    174.31146    6.3756837 
   64600       258400    9833.5389    -33661.24    274.88947  -0.10283884   -23827.701    410.43346    1.0712255 -0.0060101627 -0.004189326    1.0712506    174.11248    174.14349     6.586095 
   64800       259200    9838.8439   -33668.472    275.03777  0.028935314   -23829.628     410.9369   -3.0232462  0.018021579  0.013924355    -3.023332    174.03248     173.9465    6.6127809 
   65000       260000    9899.7861   -33685.024    276.74136 0.0076353486   -23785.238    364.81571   -2.5975556  0.013166387  0.012570346   -2.5976194    173.95248    173.87866    6.4111033 
   65200       260800    9829.4523   -33691.989    274.77523  0.054065785   -23862.537    442.38203     1.345625 -0.0071514435 -0.0062793721    1.3456587    173.87248    173.91133    6.3447637 
   65400       261600    9873.2644   -33745.183    275.99997 -0.024911925   -23871.919    452.22103    -3.209517  0.016718537  0.016386833   -3.2096023    173.79248    173.70118    6.3287174 
   65600       262400    9843.0715   -33711.569    275.15595  -0.10743684   -23868.497    450.79365   -6.3005781  0.033936792  0.032961259   -6.3007557    173.71248    173.53286    5.9257875 
   65800       263200    9824.3782   -33644.783    274.63339 -0.048105651   -23820.405    402.05832   -8.5755085  0.039642445  0.045026759   -8.5757183    173.63248    173.38786    5.3531803 
   66000       264000    9849.3096   -33681.749    275.33033  0.062260824    -23832.44    412.26836   -6.1135981  0.029151744  0.033460623   -6.1137591    173.55248     173.3782    4.7474202 
   66200       264800    9901.8281   -33689.561    276.79844  0.030719978   -23787.732    364.31444   -6.4019709  0.033066804  0.035269198   -6.4021534    173.47248    173.28996    4.1990378 
   66400       265600    9816.4016    -33644.65    274.41041  0.049399939   -23828.248    404.75655   -8.8955284   0.04989857  0.047406194   -8.8957946    173.39248    173.13871    3.7163122 
   66600       266400    9959.6294   -33675.078    278.41424 -0.018759896   -23715.449      292.927   -7.6974297  0.043290757  0.042307641   -7.6976677    173.31248    173.09294    3.0320907 
   66800       267200    9859.1067    -33682.89     275.6042 -0.050115455   -23823.784    400.35875   -8.2864617  0.039818452  0.044337972    -8.286676    173.23248    172.99612     2.474574 
   67000       268000    9818.6523   -33812.783    274.47332 -0.052605016    -23994.13    567.85937   -5.6199125   0.03364867  0.031259581   -5.6201002    173.15248     172.9923    1.9133928 
   67200       268800    9839.6267   -33915.829    275.05965  0.022325543   -24076.202    648.33956   -6.0169193  0.036586851  0.032989867   -6.0171209    173.07248    172.90096    1.5657571 
   67400       269600     9810.462    -33688.25    274.24437   0.10032028   -23877.788    449.91593    -2.002202  0.011565099 0.0094298909   -2.0022576    172.99248    172.93567    1.1775701 
   67600       270400     9974.566   -33840.702    278.83178   0.03142123   -23866.136    437.66828   -5.2468354  0.028740913  0.026819039   -5.2469826    172.91248    172.76296   0.94820818 
   67800       271200    9728.8313   -33813.337    271.96244 -0.034353682   -24084.506    657.59779   -7.4688203  0.044231723  0.040002907   -7.4690584    172.83248    172.61948   0.47281425 
   68000       272000    9829.7178   -33631.352    274.78265 -0.0097127936   -23801.635    374.21222   -2.5454959  0.014327942  0.015148779   -2.5455813    172.75248    172.68015   0.13819915 
   68200       272800    9831.3593   -33652.216    274.82854  0.035782358   -23820.857    393.28489   -2.9412036  0.014936281  0.010933948   -2.9412619    172.67248    172.58884  -0.22129433 
   68400       273600     9822.669   -33711.822    274.58561 -0.0011992925   -23889.153    462.83204    2.2146276 -0.011097148 -0.010629505    2.2146809    172.59248    172.65615  -0.20856614 
   68600       274400    9876.2374    -33551.69    276.08307  -0.12587832   -23675.452    250.98027    1.6033113 -0.0089997808 -0.0080312397    1.6033567    172.51248    172.55869  0.019191175 
   68800       275200    9942.7477   -33706.889    277.94232 -0.044181443   -23764.141    339.98806    5.8767134 -0.032937935 -0.029810001    5.8768813    172.43248    172.60079   0.29787341 
   69000       276000     9757.648   -33783.036    272.76799 -0.054713409   -24025.388    598.54918    8.4521341 -0.047087805  -0.03953388    8.4523577    172.35248    172.59437     0.793575 
   69200       276800    9811.5469   -33737.745     274.2747   0.15964741   -23926.198    497.56632    5.6232208 -0.030574307 -0.029735821    5.6233825    172.27248    172.43355    1.3936681 
   69400       277600    9875.9363   -33732.548    276.07466  0.065464144   -23856.611    428.77893    3.5577743 -0.020036635 -0.019379228    3.5578835    172.19248    172.29453    1.8025928 
   69600       278400    9877.0338   -33746.269    276.10534 -0.052972562   -23869.235    444.00567    1.6905393 -0.0080022209 -0.0096015076    1.6905855    172.11248    172.16118    2.0611826 
   69800       279200    9913.3052   -33710.061    277.11928 -0.038379483   -23796.756    372.39584    2.2063345  -0.01008124 -0.012274408    2.2063917    172.03248    172.09592    2.0263833 
   70000       280000     9835.409   -33781.503    274.94175 -0.073159782   -23946.094     521.1669    3.2916796 -0.015116979 -0.018469867    3.2917661    171.95248    172.04693    2.2850844 
   70200       280800    9919.7847   -33866.236    277.30041 -0.051661998   -23946.452    519.55398    3.7669807 -0.019075931 -0.022967657     3.767099    171.87248    171.98051    2.5991455 
   70400       281600    9782.2047   -33884.016    273.45446  0.018740589   -24101.812    674.14631    5.5706478 -0.030950379 -0.035555643    5.5708473    171.79248    171.95205    2.9119127 
   70600       282400    9936.0609   -33769.575     277.7554 -0.013305266   -23833.514    407.11069    5.4826581 -0.029151783 -0.034839856    5.4828463    171.71248    171.86953    3.3370343 
   70800       283200    9725.2748   -33676.202    271.86303  0.017513572   -23950.927    527.57152    5.0047391 -0.025724299 -0.030219173    5.0048964    171.63248    171.77588    3.7578202 
   71000       284000    9825.4912   -33862.879     274.6645  -0.16147107   -24037.388    614.86478    7.6163583 -0.045455397 -0.050512045    7.6166615    171.55248     171.7705    4.2552412 
   71200       284800    9884.7355   -33797.436    276.32063 -0.039835276     -23912.7    490.06841    6.2710158 -0.039994992 -0.037046395    6.2712527    171.47248    171.65206    4.8558612 
   71400       285600    9836.3952   -33778.762    274.96931  0.040634805   -23942.367    517.84907    8.9596485 -0.056697346 -0.053138305    8.9599855    171.39248    171.64888     5.467244 
   71600       286400    9785.5104   -33738.765    273.54687  0.016533435   -23953.255    531.80383    5.9480369 -0.034372765 -0.034005314    5.9482334    171.31248    171.48283     6.085309 
   71800       287200    9857.5851   -33672.015    275.56166  -0.13018224   -23814.429    396.00885    7.4787792 -0.048408946 -0.041995539    7.4790538    171.23248    171.44657    6.6683166 
   72000       288000    9889.6068   -33712.552    276.45681 -0.087991503   -23822.945    404.60295    9.2861784 -0.061880769 -0.045851606    9.2864978    171.15248    171.41821     7.204702 
   72200       288800    9970.9431   -33671.417     278.7305  0.038644763   -23700.474    280.55432    4.3543378 -0.028993697 -0.023021438    4.3544952    171.07248    171.19729    7.7212201 
   72400       289600     9814.572   -33548.172    274.35926 -0.018460117     -23733.6    314.22485   0.64734504 -0.0042345714 -0.0036947498   0.64736943    170.99248    171.01137    7.9697147 
   72600       290400    9868.6466   -33588.305    275.87088 0.0087818506   -23719.658    300.53543   -5.3402232  0.035546652  0.033967075   -5.3404495    170.91248    170.76029    7.8164127 
   72800       291200    9758.4855   -33691.501    272.79141 -0.021821562   -23933.015    514.12343   -4.9656375  0.032139409  0.030743248   -4.9658367    170.83248      170.691    7.2791615 
   73000       292000    9823.9741   -33654.469    274.62209  0.030641201   -23830.495      409.976      -6.7726  0.041230851  0.036971914   -6.7728264    170.75248    170.55937    6.8194044 
   73200       292800    9756.7432    -33588.91     272.7427  0.085561832   -23832.167     411.4133   -5.3681598  0.033957325  0.032587107   -5.3683661    170.67248     170.5195    6.4470374 
   73400       293600    9826.8625   -33515.276    274.70284 -0.043648168   -23688.414    269.29905   -6.3785586  0.038946594  0.040575639   -6.3788065    170.59248    170.41063     5.984969 
   73600       294400    9892.0435   -33552.505    276.52492 -0.081661986   -23660.461    241.19774   -8.6594594  0.055716312  0.054785227    -8.659812    170.51248    170.26545    5.3680403 
   73800       295200    9848.7556   -33553.332    275.31484  0.024709541   -23704.577    281.40526   -14.588789  0.096759015  0.089346423   -14.589383    170.43248    170.01604    4.4850538 
   74000       296000    9887.3648   -33589.784    276.39413  0.019110928   -23702.419    279.37252   -9.1234212   0.05826479  0.055286944   -9.1237748    170.35248     170.0922    3.5012448 
   74200       296800    9789.8627   -33559.143    273.66853 -0.028039068    -23769.28    347.33852   -4.5277049  0.031340377  0.029321402   -4.5279083    170.27248    170.14351    2.9790628 
   74400       297600    9807.4424   -33523.152    274.15996  0.033236783    -23715.71    293.54593   -3.6356245  0.026107933  0.022406839   -3.6357873    170.19248      170.089    2.6859785 
   74600       298400    9893.1186   -33481.868    276.55498  -0.10159042    -23588.75    165.07433   -7.7081839  0.053888138  0.048120653   -7.7085225    170.11248    169.89263     2.223867 
   74800       299200    9825.9431   -33770.186    274.67713 -0.023095485   -23944.243    520.83959   -5.9762031  0.045193206  0.040220416   -5.9765093    170.03248    169.86212    1.6788863 
   75000       300000    9817.3962   -33744.955    274.43821 -0.038454114   -23927.559     501.4224    -6.861567  0.053194215   0.04311369   -6.8619086    169.95248    169.75682     1.252795 
   75200       300800    9867.1806    -33684.25     275.8299   0.10732367   -23817.069    389.56936    -7.936542  0.055745721   0.05379545   -7.9369201    169.87248    169.64611   0.61198764 
   75400       301600    9787.4069   -33744.215    273.59988  0.016790879   -23956.808    529.79584   -3.7620174  0.029669048  0.025591478   -3.7622215    169.79248    169.68539   0.23043838 
   75600       302400    9790.7085   -33535.485    273.69218 0.0075189596   -23744.776    318.73164   -2.2891748  0.015439598  0.016799901   -2.2892885    169.71248    169.64747 0.0030029698 
   75800       303200    9827.1112   -33635.692    274.70979  0.064850629   -23808.581    383.16495    4.3444798 -0.030895656 -0.029360618    4.3446889    169.63248    169.75701  0.036388976 
   76000       304000    9831.2874   -33561.284    274.82653  0.012388416   -23729.997    306.35804    2.5782968 -0.018253565 -0.016984538    2.5784173    169.55248    169.62655   0.30100616 
   76200       304800    9680.9998   -33661.367    270.62535 -0.060319485   -23980.367    558.22592    1.0091251 -0.0070093855 -0.0070833944    1.0091744    169.47248    169.50171   0.45790043 
   76400       305600    9777.8693   -33520.757    273.33327 -0.013461999   -23742.887    319.69182    4.3219198 -0.029250437 -0.023741362     4.322084    169.39248    169.51637   0.65719238 
   76600       306400    9967.6921   -33617.775    278.63962 -0.024876039   -23650.083    224.82054    6.9206812 -0.046532457 -0.042725542    6.9209695    169.31248    169.51062    1.2426864 
   76800       307200    9934.7888   -33670.275    277.71984  0.026800494   -23735.486    310.80368    8.0076058 -0.053239833 -0.048034093    8.0079268    169.23248    169.46168    1.7499257 
   77000       308000    9849.3621   -33567.438     275.3318  0.049879211   -23718.076    294.60846    3.2490233 -0.021141925 -0.018320776    3.2491438    169.15248    169.24571    2.1531054 
   77200       308800    9792.9148   -33644.736    273.75385  -0.12736494   -23851.821    429.30608    1.9717319 -0.013196438 -0.010501469     1.971804    169.07248    169.12922    2.3374212 
   77400       309600    9868.9586   -33558.528     275.8796 -0.060324882   -23689.569    266.99401   0.40562403 -0.0026172445 -0.0023471841   0.40563926    168.99248    169.00447    2.4804771 
   77600       310400    9853.5524    -33625.21    275.44893 -0.016187658   -23771.658    348.15729    5.9989301 -0.042660113  -0.03663758    5.9991937    168.91248    169.08428    2.7227007 
   77800       311200      9716.59   -33731.616    271.62025  0.012047755   -24015.026    590.15716    2.3272345 -0.016964418 -0.015653441    2.3273489    168.83248    168.89937    2.9998224 
   78000       312000     9795.353    -33547.93    273.82201 -0.020775312   -23752.577    328.43504    2.6414239 -0.018129868 -0.015912572     2.641534    168.75248    168.82835     3.065424 
   78200       312800    9829.4827   -33652.211    274.77608  0.042165306   -23822.728    399.22613    2.1054312 -0.016535254 -0.014385646    2.1055452    168.67248    168.73304     3.344141 
   78400       313600    9813.3506   -33687.319    274.32512 -0.017877486   -23873.969    451.31119    4.9264178 -0.037570435 -0.031424438    4.9266612    168.59248    168.73364    3.7296726 
   78600       314400    9907.2487   -33631.668    276.94997 -0.079482878    -23724.42    303.34671     1.623358 -0.012219203 -0.0097134832    1.6234331    168.51248    168.55926    3.8961637 
   78800       315200    9829.5873   -33519.016    274.77901 -0.034973704   -23689.429    268.58116   0.88807003 -0.0063891687 -0.0056343118   0.88811089    168.43248    168.45825    3.9066237 
   79000       316000    9885.8229   -33559.145    276.35103  0.060082457   -23673.322    251.75819  -0.69949293 0.0048610593 0.0048936024  -0.69952693    168.35248    168.33289    3.9995303 
   79200       316800    9916.5405   -33545.688    277.20972  0.036168296   -23629.147    208.33376    1.8925166 -0.012262919 -0.013621001    1.8926053    168.27248    168.32695    4.0703488 
   79400       317600    9851.9748   -33638.225    275.40483 -0.056277796    -23786.25    365.82274    5.1246715 -0.035068284 -0.038708632    5.1249377    168.19248     168.3393    4.3325241 
   79600       318400    9812.9957   -33662.056     274.3152 -0.044667305    -23849.06     427.5965    1.4547705  -0.01048328 -0.010858112    1.4548487    168.11248    168.15445    4.6030981 
   79800       319200    9810.9554   -33683.822    274.25816  0.006223115   -23872.867    451.81212    2.8615611 -0.018553617 -0.021844817    2.8617046    168.03248    168.11464    4.7457869 
   80000       320000    9638.9633   -33662.293    269.45025  0.081939696    -24023.33    602.03215    7.4302078 -0.049848719 -0.053744695    7.4305694    167.95248    168.16518    5.0977217 
   80200       320800    9799.4999   -33579.035    273.93793   0.12147803   -23779.535    359.87476    3.4533017  -0.02416093 -0.025907795    3.4534834    167.87248    167.97155    5.4986668 
   80400       321600    9714.5352   -33603.585    271.56281 -0.088041764    -23889.05    471.20412    3.8559862 -0.023801429 -0.028619095    3.8561659    167.79248    167.90305    5.7846089 
   80600       322400    9734.3586       -33608    272.11696  -0.11778066   -23873.641    455.27944   -1.0627668 0.0061614248  0.008250762   -1.0628167    167.71248    167.68251    5.8550118 
   80800       323200    9931.2908   -33727.053    277.62205 0.0045478429   -23795.762    374.49477   -3.0393333  0.018818381  0.019595155   -3.0394547    167.63248    167.54604    5.6225123 
   81000       324000    9887.7451   -33767.132    276.40476   0.17833638   -23879.387    455.99505    3.1066232 -0.018862641 -0.020945906    3.1067511    167.55248    167.64164    5.6421022 
   81200       324800    9725.4273   -33856.041    271.86729  0.055667084   -24130.613    707.30685    -3.214664  0.017439786  0.022081172   -3.2147871    167.47248    167.38103    5.7617167 
   81400       325600    9954.0478   -33877.638    278.25821 -0.066196292    -23923.59    500.87669   -8.4153501  0.052270055  0.057883312   -8.4157115    167.39248    167.15243    5.2788087 
   81600       326400     9884.466   -33778.986     276.3131  -0.10693692    -23894.52    473.49131   -3.7852185  0.023494938  0.026130164   -3.7853816    167.31248    167.20472    4.7767945 
   81800       327200    9817.2187   -33706.823    274.43325  0.021244527   -23889.605    466.62066    -7.076551  0.046828418  0.045305737    -7.076851    167.23248    167.03068    4.3384343 
   82000       328000    9786.9125    -33743.78    273.58606 -0.035570085   -23956.868    532.54642   -7.8147746  0.053268851   0.05504764     -7.81515    167.15248    166.92959    3.8000608 
   82200       328800    9772.9789   -33696.842    273.19656  0.013862912   -23923.863    500.32392   -5.8030464  0.039186671  0.043539321    -5.803342    167.07248    166.90707    3.3015288 
   82400       329600    9753.2041   -33658.729    272.64377 -0.043656257   -23905.525    484.57003   -2.0082045  0.014007423  0.015371388   -2.0083122    166.99248     166.9355    3.0110664 
   82600       330400    9894.6372    -33669.04    276.59743 -0.067370499   -23774.402    353.64553    -0.891187 0.0063015503  0.007079267   -0.8912374    166.91248    166.88741    2.9441636 
   82800       331200    9984.0672   -33744.039    279.09738 -0.017187543   -23759.972    336.59577   -1.3379535 0.0092169587  0.010588144   -1.3380271    166.83248    166.79465    2.8575581 
   83000       332000    9806.6311   -33727.961    274.13728  0.063646818   -23921.329    495.18482     4.053899  -0.03113526 -0.030421333    4.0541327    166.75248    166.86871    3.0090814 
   83200       332800    9759.2209    -33643.35    272.81196 -0.026205985   -23884.129     459.7297    2.9209704 -0.021721017  -0.02217506    2.9211353    166.67248    166.75634    3.2874379 
   83400       333600    10025.817   -33655.576    280.26448 -0.048049979   -23629.759    208.55353  -0.17466373 0.0014337231 0.0014897102  -0.17467597    166.59248    166.58789    3.3266436 
   83600       334400    9814.7178   -33655.956    274.36334 -0.081256895   -23841.238    420.86977   -2.2691047  0.018613202  0.017715693   -2.2692502    166.51248    166.44804    3.1255197 
   83800       335200    9740.5838   -33743.581    272.29098 -0.060381663   -24002.997    581.98615  -0.74708561  0.006533679 0.0056950557  -0.74713589    166.43248    166.41153     3.039292 
   84000       336000    9835.1815   -33680.465    274.93539   0.13157228   -23845.284    419.86224    -1.056703  0.010483087 0.0080793706   -1.0567859    166.35248    166.32268     3.006685 
   84200       336800    9805.2135   -33710.608    274.09765   0.10567891   -23905.394    479.72877   -3.3695929  0.031640853  0.025416498   -3.3698373    166.27248     166.1766    2.9091219 
   84400       337600    9866.9657   -33836.066    275.82389 -0.067485102     -23969.1    544.25533   -4.9943643  0.050043275  0.040779919   -4.9947815    166.19248    166.05017    2.5894866 
   84600       338400     9858.236   -33827.776    275.57986  0.041454696    -23969.54    546.08031   -6.4762803  0.061404849  0.052648847   -6.4767854    166.11248    165.92783    2.0560615 
   84800       339200    9888.3366   -33611.652     276.4213 -0.089929759   -23723.316    298.95141   -3.6251516  0.037251845  0.027370104   -3.6254463    166.03248    165.92929    1.6383703 
   85000       340000    9898.9657   -33685.342    276.71843 -0.0043794606   -23786.377    360.80665   -6.5200421  0.060145423  0.051681896   -6.5205243    165.95248    165.76658    1.3710959 
   85200       340800    9816.9506   -33742.827    274.42575 -0.021347631   -23925.876    499.85795  -0.53487751 0.0049734261 0.0036910321  -0.53491337    165.87248    165.85759    1.0792021 
   85400       341600    9828.5384   -33685.289    274.74968  0.023719668   -23856.751    429.56797   0.18810221 -0.0018349797 -0.0013079102   0.18811571    165.79248    165.79825    1.0672554 
   85600       342400    9851.8127   -33831.073     275.4003  0.045812393   -23979.261    551.27534    1.3370193 -0.012871663 -0.010367199    1.3371214    165.71248    165.75108    1.0749511 
   85800       343200    9853.1154   -33776.417    275.43672 -0.083408796   -23923.302    496.40666   -2.6674729  0.023210198  0.020140095   -2.6676499    165.63248    165.55666   0.96675634 
   86000       344000    9802.0986   -33616.142    274.01058 0.0061437682   -23814.043    388.49505    0.9352044 -0.0074779378 -0.0074613091   0.93526406    165.55248     165.5796   0.89149717 
   86200       344800    9912.9212   -33457.766    277.10855  0.012429097   -23544.845    120.24648   0.89216455 -0.0073673005 -0.0073810881    0.8922255    165.47248    165.49837   0.92611884 
   86400       345600    9767.7364   -33633.533    273.05001 -0.030771474   -23865.796    441.54092    5.1354521 -0.040413711 -0.045025457    5.1358084    165.39248    165.53962    1.1848001 
   86600       346400    9932.4292    -33735.75    277.65388 -0.012120538   -23803.321    377.13396    5.3001317 -0.040515166 -0.051269769    5.3005346    165.31248    165.46432    1.6473023 
   86800       347200    9843.9987   -33578.064    275.18186   0.11502614   -23734.065    305.75159    9.0218949 -0.071044724 -0.085373545    9.0225785    165.23248    165.49067    2.2404362 
   87000       348000    9878.1056   -33645.174     276.1353  0.021759332   -23767.068    339.67536    10.031663 -0.076152275 -0.094935078    10.032401    165.15248    165.43952    2.9658227 
   87200       348800    9759.6704   -33570.538    272.82453 -0.012107953   -23810.867    387.32919    11.487476 -0.095200691 -0.099606249    11.488302    165.07248    165.40112    3.9078914 
   87400       349600    9943.8496   -33506.309    277.97313 -0.023770264    -23562.46    142.02282    8.3263466 -0.063911155  -0.06767255    8.3268669    164.99248    165.23079    4.8064344 
   87600       350400    9959.4917   -33575.145    278.41039 -0.034948604   -23615.653    196.91228    6.1548026 -0.049868065 -0.046888111    6.1551832    164.91248    165.08874    5.4594407 
   87800       351200    9782.0601    -33540.71    273.45042  0.085982017    -23758.65    338.98762    6.9297504 -0.052290106 -0.051443477    6.9301386    164.83248    165.03088    5.9222518 
   88000       352000    9782.0687   -33746.696    273.45066  0.031234618   -23964.627    543.09269    1.9224064 -0.013582358 -0.015824449    1.9225195    164.75248    164.80781    6.3218771 
   88200       352800    9857.1042   -33837.343    275.54822 -0.019081356   -23980.239    557.34547    1.6689124 -0.014468976 -0.013154115    1.6690269    164.67248    164.72056    6.5144511 
   88400       353600    9857.3854   -33684.224    275.55608  0.020025677   -23826.839    404.43667    1.7431491 -0.013858645 -0.014449335     1.743264    164.59248    164.64269     6.610703 
   88600       354400    9692.5422   -33640.745    270.94801 -0.085815967   -23948.202    527.18434   -1.9437869  0.016970083  0.016557882   -1.9439315    164.51248    164.45734    6.4940425 
   88800       355200    9892.5853   -33630.302    276.54007 -0.031156025   -23737.716     315.8502   -1.7381033   0.01399092  0.015541419   -1.7382291    164.43248    164.38321    6.4262746 
   89000       356000    9901.5015   -33740.368    276.78931  0.030345873   -23838.867    416.37868   -4.4658261  0.033044847  0.035292647   -4.4660878    164.35248    164.22528    6.1752323 
   89200       356800    9847.9286   -33761.505    275.29172 -0.019671129   -23913.576     489.8432   -7.5240547  0.054747181  0.064200676   -7.5245278    164.27248    164.05789    5.6321903 
   89400       357600    9950.6655   -33594.638    278.16366  0.015060623   -23643.972    220.36318   -8.2606844    0.0544583  0.078128357   -8.2612334    164.19248    163.95684    5.1037819 
   89600       358400    9880.2637    -33756.69    276.19563  0.027606342   -23876.426     453.2047    -5.995791  0.045405345  0.052649108   -5.9961941    164.11248    163.94156      4.52835 
   89800       359200    9817.4965   -33779.982    274.44102 -0.041297581   -23962.485    539.11661   -4.4638758  0.034360109  0.039200258   -4.4641802    164.03248    163.90533    4.1917506 
   90000       360000    9884.9738   -33623.976    276.32729  0.051610625   -23739.003    315.47978   -2.9186453  0.022439051   0.02569304   -2.9188446    163.95248    163.86948    3.8237633 
   90200       360800    9751.9702   -33591.337    272.60927 -0.020510239   -23839.367     415.0462   -3.7049228   0.02617018    0.0345689   -3.7051765    163.87248    163.76702    3.4831326 
   90400       361600    9807.4511   -33614.629     274.1602   0.02380411   -23807.178    382.81931   -5.3085069  0.043110694    0.0534173   -5.3089506    163.79248    163.64119    3.1381656 
   90600       362400    9960.4624   -33458.273    278.43752  0.021479117   -23497.811    75.100327   -2.5570106  0.019327474  0.023502517   -2.5571916    163.71248    163.63982    2.8072836 
   90800       363200    9837.7408   -33465.404    275.00693 -0.096800965   -23627.664     206.7042   -2.5822372  0.019462144  0.024585707   -2.5824276    163.63248    163.55909    2.6158542 
   91000       364000    9917.8583   -33556.379    277.24656 -0.080102313   -23638.521    216.50414   -5.2450937   0.03881984  0.047518084   -5.2454526    163.55248    163.40301    2.3918188 
   91200       364800    9803.6873   -33695.361    274.05499  0.017327404   -23891.674    466.84117   -3.5455623  0.025584191   0.03347914   -3.5458127    163.47248    163.37157    2.0389891 
   91400       365600     9691.376   -33617.699    270.91541  0.033440686   -23926.322    499.46058  -0.83987978 0.0063810059 0.0075960872  -0.83993837    163.39248    163.36888    1.9112721 
   91600       366400     9871.035   -33555.362    275.93765    0.0776089   -23684.327    258.17232   -2.2373193   0.01637012  0.020245043   -2.2374708    163.31248    163.24895    1.7638446 
   91800       367200     9838.033   -33567.153     275.0151  0.043383165    -23729.12    305.07474   -1.8331525  0.013255938  0.016018324   -1.8332705    163.23248     163.1805    1.6453827 
   92000       368000    9929.5863   -33480.104    277.57441 0.0088863216   -23550.518    127.92732   -3.5177546  0.024978603  0.031508161   -3.5179844    163.15248    163.05236    1.5134307 
   92200       368800     9751.789   -33422.336    272.60421 -0.043121655   -23670.547    248.31677   -5.0982404  0.037582953    0.0413135   -5.0985463    163.07248    162.92721    1.0805242 
   92400       369600    9933.5457   -33468.913    277.68509 -0.008105088   -23535.367    111.06348   -3.4776493  0.026265638  0.027316945   -3.4778558    162.99248    162.89351   0.82719817 
   92600       370400    9905.4402   -33517.191    276.89942   0.10261993   -23611.751    186.18433    2.5005649 -0.016603119 -0.018954887    2.5006918    162.91248    162.98433   0.76476181 
   92800       371200    9812.4605   -33483.055    274.30024 -0.054476304   -23670.595    244.97218    6.7986722 -0.053825571  -0.05454512    6.7991041    162.83248    163.02714    1.2808307 
   93000       372000    9826.5892   -33460.249    274.69519 -0.064311339   -23633.659    210.14677    3.8181793 -0.028898829 -0.027864654    3.8183903    162.75248    162.86197    1.5654878 
   93200       372800    9911.7137   -33497.649    277.07479 -0.047326244   -23585.935    162.94979    4.6043681 -0.035060805 -0.036659201    4.6046475    162.67248    162.80444    1.9103492 
   93400       373600     9855.345   -33436.887    275.49904 -0.028959899   -23581.542    156.81475    8.1623441 -0.062406399 -0.064119516    8.1628345    162.59248     162.8261    2.4247535 
   93600       374400    9763.0674   -33447.906    272.91949   0.11910196   -23684.839    261.33039    1.5603403 -0.012994411 -0.012051694    1.5604409    162.51248    162.55746    2.9551169 
   93800       375200    9891.9355   -33516.794     276.5219  0.072596256   -23624.858    200.93136    3.5961411 -0.029270035 -0.029175299    3.5963785    162.43248    162.53563    2.9981993 
   94000       376000    9887.6851   -33560.905    276.40309   0.10315043    -23673.22    250.57084    5.3105358 -0.040146539 -0.043351216    5.3108645    162.35248    162.50462    3.4104534 
   94200       376800    9773.3259   -33624.524    273.20626   0.07944883   -23851.199    429.91629    1.4699788 -0.011075859  -0.01306968    1.4700786    162.27248    162.31488    3.7293214 
   94400       377600    10122.371   -33475.868    282.96356 -0.0039012222   -23353.497   -66.546644      3.49124 -0.026411866 -0.033385076    3.4914995    162.19248    162.29264    3.8721633 
   94600       378400    9867.1205   -33453.351    275.82822 -0.012208747    -23586.23    165.21107    3.6314624 -0.030474543 -0.034644618    3.6317555    162.11248    162.21664    4.1259457 
   94800       379200    9842.6689   -33625.224    275.14469  0.093900335   -23782.556     361.2927    3.0618381  -0.02494895 -0.029149832    3.0620785    162.03248    162.12037     4.485564 
   95000       380000    9871.6162    -33619.46    275.95389 0.0036243473   -23747.844    326.78943    5.9976135 -0.050516871 -0.058419293    5.9981107    161.95248    162.12425    4.8008656 
   95200       380800    9716.2335   -33599.086    271.61028  0.021568277   -23882.853     463.0159    3.2582201 -0.027011506 -0.030101332    3.2584711    161.87248    161.96598     5.272434 
   95400       381600    9720.0381   -33579.336    271.71664  0.038103259   -23859.298    438.70603   0.98473352 -0.0085790677 -0.0087190865   0.98480949    161.79248    161.82102    5.3970972 
   95600       382400    9922.1928   -33467.251    277.36772  0.041103118   -23545.058    124.02431    1.5590371 -0.012766861 -0.015731315    1.5591687    161.71248    161.75743    5.4275747 
   95800       383200    9610.3618   -33525.395    268.65072  0.024959333   -23915.033    496.01755  -0.65676455 0.0054837083 0.0064112805  -0.65681874    161.63248    161.61411    5.5545128 
   96000       384000    9782.7477    -33498.15    273.46964 -0.086341134   -23715.403    296.44229   -2.5904286  0.022327363  0.026021804   -2.5906555    161.55248    161.47886    5.3271912 
   96200       384800    9984.7833   -33589.234     279.1174 -0.013609118    -23604.45    183.31556   -2.1409614  0.017789687  0.021168365   -2.1411399    161.47248     161.4117    5.2533629 
   96400       385600    9856.2107   -33414.378    275.52324  0.091401963   -23558.167    135.60923   -1.1224286  0.009170576  0.010476802   -1.1225149    161.39248    161.36081    5.1183246 
   96600       386400    9883.8128   -33588.746    276.29484  0.066273449   -23704.933    281.16402   -1.0216513 0.0089868947 0.0092857079    -1.021733    161.31248    161.28369     5.021926 
   96800       387200    9878.4935   -33555.498    276.14614 -0.061630497   -23677.005     254.6963   -4.1124883  0.033936672  0.038935262   -4.1128127    161.23248    161.11537    4.7311318 
   97000       388000    9764.4012   -33545.197    272.95678  -0.11955135   -23780.795    359.59425   -1.3105135  0.011489045  0.012079671   -1.3106196    161.15248    161.11543    4.5441845 
   97200       388800    9869.1228   -33431.598    275.88419 -0.071679483   -23562.475    141.47688    0.9332276 -0.0088455533 -0.0084410614    0.9333077    161.07248    161.09954    4.5941662 
   97400       389600    9858.0229   -33641.715     275.5739 -0.065357412   -23783.692    362.41469  -0.48669829 0.0046700624 0.0040809435  -0.48673781    160.99248    160.97897    4.6163517 
   97600       390400    9726.6298   -33538.826     271.9009  0.082006286   -23812.196    388.59674  -0.35866459  0.003209712 0.0031829755  -0.35869307    160.91248    160.90263    4.5203031 
   97800       391200    9989.1792   -33767.744    279.24028  0.069408475   -23778.565    355.46477   0.81963555 -0.0077363471 -0.0073471653   0.81970499    160.83248     160.8563    4.6542442 
   98000       392000    9843.7496   -33584.609     275.1749  0.026027321   -23740.859    318.91913   -1.7226627  0.017439475  0.015418595     -1.72282    160.75248    160.70365    4.4677959 
   98200       392800    9923.9469   -33676.296    277.41676 -0.0048775069   -23752.349     331.2119   -3.4064599  0.030595564   0.03226967   -3.4067501    160.67248    160.57554    4.3157566 
   98400       393600    9829.7847   -33632.576    274.78452   0.02239006   -23802.792    377.65794   -7.1523236  0.069461156  0.063535956   -7.1529431    160.59248    160.38851    3.7959408 
   98600       394400    9868.3067   -33611.625    275.86138 -0.0075216755   -23743.318     316.8153   -5.0925025  0.050771785  0.049054177   -5.0929918    160.51248    160.36736     3.394936 
   98800       395200    9840.2519   -33635.851    275.07713  0.055911675   -23795.599    369.27546   -8.4540629    0.0791219  0.072760068   -8.4547463    160.43248    160.19131    2.8963838 
   99000       396000    9759.8254   -33464.503    272.82886 -0.041122056   -23704.678    280.38658    -9.155174  0.090659456  0.073143198    -9.155915    160.35248    160.09128    2.1625377 
   99200       396800     9785.241   -33541.781    273.53934 -0.067225374    -23756.54     331.6705   -7.5682233  0.069886389  0.068375437   -7.5688549    160.27248    160.05663    1.3540893 
   99400       397600    9846.7692   -33496.836    275.25931   0.12157049   -23650.067     224.7783   -3.8406614  0.034390685  0.033691029   -3.8409632    160.19248    160.08314   0.98191137 
   99600       398400    9883.2644   -33589.659    276.27951 -0.071737894   -23706.394    279.89935  -0.64374956 0.0051533345 0.0055874224  -0.64379443    160.11248    160.09448   0.79555012 
   99800       399200    9869.0932   -33565.772    275.88337  0.017739214   -23696.679    269.93415  -0.18541076 0.0015468936 0.0016764323  -0.18542479    160.03248    160.02758   0.67657781 
  100000       400000    9905.4756   -33557.926    276.90041 -0.038618894    -23652.45    225.90922            0            0            0            0    159.95248    159.95384   0.75139594 
  100200       400800    9768.0875   -33636.522    273.05982 -0.037209487   -23868.435    442.69925    1.3273552 -0.011122811  -0.01263382    1.3274619    159.87248    159.91081   0.69224709 
  100400       401600    9840.3716     -33606.4    275.08047 -0.057870755   -23766.029    339.60857    3.4757424  -0.03048685  -0.03221403    3.4760254    159.79248    159.89219   0.83498347 
  100600       402400    9926.9917   -33571.351    277.50188  0.095545984   -23644.359    218.36472    6.2032414 -0.053003686 -0.055269477     6.203714    159.71248    159.89013    1.1756818 
  100800       403200    9913.6714   -33638.464    277.12952  0.015168417   -23724.792    299.34064    2.9804646 -0.029573464 -0.026753918    2.9807314    159.63248    159.71804    1.5568684 
  101000       404000    9802.9551    -33425.31    274.03452 -0.0011512106   -23622.355    197.88005   0.19772569 -0.0019338272 -0.0018117547   0.19774345    159.55248    159.55853     1.699423 
  101200       404800    9844.0002    -33548.04    275.18191  0.078209432    -23704.04    279.75376    3.9070342 -0.039343023 -0.035201526    3.9073909    159.47248    159.58452    1.7563876 
  101400       405600    9914.2908   -33521.751    277.14683  0.073463879    -23607.46    182.09965    6.3249703 -0.062153135 -0.052378449    6.3254926    159.39248    159.57361    2.1887382 
  101600       406400    9988.9086   -33625.492    279.23272 -0.034495554   -23636.583     211.1509    5.7136855 -0.061896396 -0.045893156    5.7142051    159.31248    159.47614    2.6103586 
  101800       407200    9863.3283    -33529.35    275.72221  0.014525415   -23666.021    240.06317    2.8881207 -0.032918821 -0.024370489    2.8884111    159.23248     159.3154    2.9996957 
  102000       408000    9706.2807   -33568.292    271.33206  0.021637064   -23862.012     436.1936   0.73502656 -0.0080582234 -0.0061341225   0.73509632    159.15248    159.17388     3.102345 
  102200       408800    9921.3481   -33515.173    277.34411  0.058118979   -23593.825    169.42457     4.044357 -0.043917217 -0.030490861    4.0447104    159.07248    159.18844    3.3609462 
  102400       409600    9802.5124   -33452.267    274.02215 -0.0069322476   -23649.754    226.04037    3.2452502  -0.03494377 -0.027873545     3.245558    158.99248    159.08561    3.6703098 
  102600       410400    9847.0559   -33532.288    275.26733  0.024265984   -23685.232    263.25104    2.5446756 -0.029638712 -0.019643453     2.544924    158.91248    158.98559     3.913642 
  102800       411200     9910.887   -33448.421    277.05168 -0.023618576   -23537.534     114.9876    6.6707166 -0.070623784 -0.053926066    6.6713084    158.83248    159.02349    4.3214175 
  103000       412000    9812.7721     -33449.3    274.30895  0.022550879   -23636.528     214.8284    5.6440421 -0.058842065  -0.03868246    5.6444814    158.75248    158.91415    4.7534816 
  103200       412800    9892.6907   -33453.805    276.54302 -0.022972033   -23561.114    140.04376    2.6645152  -0.02892736 -0.020378972    2.6647501    158.67248    158.74901    5.0635191 
  103400       413600    9805.1747   -33552.834    274.09657  0.039293526   -23747.659    325.70762   0.71438831 -0.0079044649 -0.0050118662   0.71444962    158.59248    158.61329    5.1914499 
  103600       414400    9766.9623   -33686.313    273.02837  0.051524276    -23919.35    496.90563    2.4275896  -0.02628817 -0.017532799    2.4277952    158.51248    158.58224    5.3628197 
  103800       415200    9846.8306   -33686.189    275.26103  0.077546501   -23839.359    416.11192  -0.86136059  0.008370514 0.0064673777  -0.86142554    158.43248    158.40827    5.3812375 
  104000       416000    9738.6016   -33553.554    272.23557  0.060564313   -23814.953    391.99519   -3.0931641  0.030540398  0.025977494   -3.0934239    158.35248    158.26449    5.2192704 
  104200       416800    9912.2489   -33536.466    277.08975 -0.084500501   -23624.217    202.93508   -3.4804838  0.033518475  0.024379023   -3.4807305    158.27248    158.17343    5.0442841 
  104400       417600    9796.1879   -33556.122    273.84535  0.013534665   -23759.934    339.62055   -2.8580782   0.02726689  0.023256712   -2.8583028    158.19248    158.11121    4.7254053 
  104600       418400    9785.0846   -33423.179    273.53496 -0.031983439   -23638.094    217.09434   -2.1632563  0.021795298  0.018041535   -2.1634413    158.11248    158.05107    4.5416276 
  104800       419200    9897.2018   -33604.194    276.66912 -0.045177943   -23706.992    284.52196    1.9388841 -0.020074278 -0.015863607    1.9390529    158.03248    158.08828    4.5560345 
  105000       420000    9868.7575   -33656.418    275.87398 -0.018758817    -23787.66    365.04992   -2.8141685  0.030830435  0.021864875   -2.8144223    157.95248    157.87247    4.6369516 
  105200       420800    9817.7617   -33578.619    274.44843 -0.075637732   -23760.857    336.71523   -5.3156516  0.059415442  0.042156366   -5.3161508    157.87248    157.72099     4.229597 
  105400       421600    9785.2605   -33526.535    273.53988 -0.0041823469   -23741.275    318.79189    1.4192333 -0.014991151 -0.012729259    1.4193695    157.79248    157.83343    4.0107949 
  105600       422400    9934.5187   -33551.193    277.71229  0.028843731   -23616.674     194.8187   -1.9324435  0.021363836  0.017141006   -1.9326376    157.71248    157.65766    4.0614821 
  105800       423200    9826.4739   -33577.668    274.69197 -0.058633112   -23751.194    329.84433   -1.4848457  0.017200563  0.013966586    -1.485011    157.63248    157.59045    3.9915114 
  106000       424000     9795.793   -33530.287    273.83431 -0.030294265   -23734.494    310.63421   -1.5899101  0.017955491  0.014438917   -1.5900771    157.55248    157.50745    3.7240429 
  106200       424800    9839.6313   -33692.008    275.05978  0.044969104   -23852.377    427.74855    1.6618098 -0.018055307 -0.015286286    1.6619782    157.47248    157.52036    3.7495417 
  106400       425600    9821.3947   -33487.663    274.54999  0.089692984   -23666.269    241.58425   -2.8415774  0.030526482  0.025611681   -2.8418568    157.39248    157.31168    3.6240541 
  106600       426400      9751.09   -33574.389    272.58467 -0.013548244   -23823.299    401.01942   -1.4558453  0.014056318   0.01347967   -1.4559756    157.31248    157.27128    3.5757745 
  106800       427200    9908.9734   -33398.077    276.99819 -0.016658679   -23489.103    68.416783   -1.0726915   0.01040825 0.0099144924   -1.0727878    157.23248    157.20223    3.4337777 
  107000       428000    9821.8376   -33475.695    274.56237   0.01272215   -23653.857    232.04369    1.4982337 -0.014329067 -0.013358342    1.4983617    157.15248    157.19569    3.3980555 
  107200       428800    9776.5892   -33554.002    273.29748 -0.041152547   -23777.412    354.05144    2.5235155 -0.025152766 -0.023944084    2.5237545    157.07248    157.14499    3.5900637 
  107400       429600    9885.7647    -33622.64     276.3494 -0.00012796583   -23736.875    313.41703    1.7072753  -0.01682202 -0.015205823    1.7074259    156.99248    157.04166    3.8505813 
  107600       430400    9697.1847   -33617.611    271.07779  -0.12598078   -23920.426    496.81069    1.8106885 -0.016681649  -0.01614358    1.8108373    156.91248    156.96462    3.8262817 
  107800       431200    9782.2932   -33576.321    273.45693 -0.025938846   -23794.028    369.67262   -0.6718306 0.0062089145 0.0054117953  -0.67188109    156.83248    156.81368    3.8037996 
  108000       432000    9687.4298   -33725.299    270.80509  0.042928826    -24037.87     613.6452   -1.7729265  0.016680392  0.013690535   -1.7730579    156.75248    156.70222    3.7553024 
  108200       432800    9903.7517   -33662.547    276.85222  0.026373897   -23758.795    334.59158   -4.9956201  0.046625236  0.039187159   -4.9959914    156.67248    156.53014    3.4880031 
  108400       433600    9797.1205   -33666.716    273.87142  0.013992795   -23869.596    445.40856   -1.5372812   0.01384034  0.011049056   -1.5373832    156.59248    156.54895    3.2136697 
  108600       434400    9809.9895   -33760.232    274.23116  -0.03697574   -23950.242    526.05371   -2.6621854  0.025146876   0.01935976   -2.6623746    156.51248    156.43681    2.9535965 
  108800       435200      9771.87   -33701.245    273.16556 -0.032750177   -23929.375    502.66247   -5.7226118  0.054628106  0.043476618   -5.7230377    156.43248    156.26936    2.5605518 
  109000       436000    9900.9842   -33705.889    276.77485  0.020287378   -23804.904    377.54227   -5.1662044  0.047749681  0.038891948   -5.1665715    156.35248    156.20526    2.1682747 
  109200       436800    9858.2058   -33746.082    275.57902  -0.03738326   -23887.876    459.85543   -3.7517475  0.034991433  0.029799273    -3.752029    156.27248    156.16568    1.7637529 
  109400       437600    9904.5991   -33788.585     276.8759  -0.13829002   -23883.986    455.93131   -1.5312397  0.013914693  0.012193568   -1.5313515    156.19248    156.14913     1.582867 
  109600       438400    9844.3397   -33706.861     275.1914 -0.068340004   -23862.522    435.47745    -1.779364  0.015511163  0.014931004   -1.7794942    156.11248    156.06204    1.4700982 
  109800       439200    9984.8689   -33572.106    279.11979  -0.05528812   -23587.237    160.95924    1.2742469 -0.010887749 -0.0096578108      1.27433    156.03248    156.06929     1.438856 
  110000       440000    9833.4525   -33623.318    274.88705  0.016300374   -23789.866    363.09988    6.5426488 -0.054623455 -0.056408957      6.54312    155.95248    156.13982     1.785974 
  110200       440800    9819.4877   -33729.168    274.49668   0.05502471    -23909.68    484.22748    2.7875886 -0.027435489 -0.026097512    2.7878457    155.87248    155.95253     2.188133 
  110400       441600    9738.3606   -33663.311    272.22883  0.042744577    -23924.95    500.04918    1.3197101 -0.011842627 -0.011758433    1.3198156    155.79248    155.83059    2.4044154 
  110600       442400     9996.543   -33580.075    279.44613 -0.050042685   -23583.532     159.5077     3.514275 -0.031488755 -0.031562744    3.5145578    155.71248    155.81329    2.5376184 
  110800       443200    9788.0626   -33584.887    273.61821  -0.02055143   -23796.825    371.84881    2.1568107 -0.018884801 -0.021848276     2.157004    155.63248    155.69451    2.7200334 
  111000       444000    9829.0051   -33629.612    274.76273 -0.016427457   -23800.607    374.00074    1.4919741 -0.013583892 -0.014992108    1.4921112    155.55248    155.59551     2.896065 
  111200       444800    9882.9095   -33616.987    276.26959 0.0033428989   -23734.077    308.93665    1.7937199 -0.016310968 -0.017852917    1.7938829    155.47248    155.52413    3.0141663 
  111400       445600    9926.0977    -33551.12    277.47688 -0.020260129   -23625.023    200.19022    9.5465444 -0.084546459 -0.093259655    9.5473742    155.39248    155.66566    3.4729132 
  111600       446400    9875.3925   -33705.296    276.05946  0.018896694   -23829.903    406.89301    6.9857468 -0.065463583  -0.06223124    6.9863307    155.31248    155.51249    4.3040395 
  111800       447200    9795.0065   -33597.562    273.81232 0.0075281897   -23802.555    378.62126    8.1880582 -0.074496898 -0.075965826    8.1887495    155.23248    155.46684    4.9565823 
  112000       448000    9883.8445   -33642.024    276.29573 0.0056801155    -23758.18    334.65353    5.0911472 -0.046571411 -0.042963587    5.0915414    155.15248    155.29835    5.5087413 
  112200       448800    9800.5061   -33639.568    273.96606 -0.019453118   -23839.062    417.04858    6.6841155  -0.06033396 -0.057444345    6.6846346    155.07248    155.26387    5.9848838 
  112400       449600    9839.4725    -33723.64    275.05534 -0.0028164248   -23884.167    465.22818    2.0106928 -0.018244429 -0.018761424    2.0108631    154.99248    155.05033    6.2034692 
  112600       450400    9856.2542   -33485.368    275.52446  0.033357442   -23629.114    209.35205     1.773921 -0.016545609 -0.015284869     1.774064    154.91248    154.96357    6.2805203 
  112800       451200    9825.1375   -33647.954    274.65461  -0.04299651   -23822.817    402.67221   -2.1038598  0.020399604  0.018749375   -2.1040423    154.83248    154.77276    6.3877235 
  113000       452000     9918.498    -33607.47    277.26444  0.047575964   -23688.972    265.24989   -10.244981   0.10207003  0.096323396   -10.245943    154.75248    154.46014    5.9008512 
  113200       452800    9768.1199   -33536.415    273.06073 0.0019069661   -23768.295    343.37433   -11.431983   0.11467542   0.10244606   -11.433017    154.67248    154.34622     4.940649 
  113400       453600    9915.8192    -33583.19    277.18955 -0.042900007   -23667.371    242.57349   -9.6080102   0.10488099  0.094736389   -9.6090496    154.59248    154.31833    4.1779675 
  113600       454400    9821.0397   -33603.963    274.54006 -0.082088947   -23782.924    358.38694   -6.8769205  0.074277202  0.066085175   -6.8776391    154.51248    154.31637    3.5774721 
  113800       455200    9849.0091   -33758.856    275.32193 -0.080292448   -23909.847    482.26722    -8.957677  0.098878938  0.090772338   -8.9586826    154.43248    154.17692    2.9949426 
  114000       456000    9803.8477   -33773.867    274.05947   0.13345477   -23970.019     541.0571   -7.7065647  0.085149643  0.078242559   -7.7074322    154.35248    154.13267    2.1868485 
  114200       456800    9710.0945   -33713.536    271.43867 -0.003623844   -24003.442    573.64869   -6.1185214  0.066271448  0.070523496   -6.1192867    154.27248    154.09804    1.6184025 
  114400       457600    9835.4535   -33523.361    274.94299   0.06603987   -23687.908    260.85443    1.5053616 -0.015530817 -0.016520329    1.5055324    154.19248    154.23589    1.4268377 
  114600       458400    9764.1254   -33479.353    272.94906  0.072214961   -23715.228    290.97273    3.7722882 -0.039055038 -0.041017815    3.7727133    154.11248    154.22067    1.6309451 
  114800       459200    9891.6486    -33646.68    276.51388 -0.091331027   -23755.031     330.9845     7.786434 -0.070076155 -0.075806178    7.7871183    154.03248    154.25537    2.0532064 
  115000       460000    9814.0102   -33486.558    274.34356  0.041349985   -23672.548    249.10179    2.9320759 -0.025850225 -0.030478392    2.9323482    153.95248    154.03666    2.5505381 
  115200       460800    9715.6511   -33771.426      271.594  0.030359491   -24055.775    630.09878    1.2595852 -0.010899687 -0.012357485     1.259693    153.87248    153.90887    2.7158015 
  115400       461600    9734.7013   -33774.381    272.12654  0.042444096    -24039.68    612.27736    4.2880677 -0.040522903  -0.03992332     4.288445    153.79248    153.91541     2.911459 
  115600       462400    9950.8878    -33837.81    278.16987 -0.034795452   -23886.922    459.98408    3.8622859 -0.039012666 -0.036532729    3.8626556    153.71248    153.82324    3.2873554 
  115800       463200    9777.6518    -33496.58    273.32719 -0.081709965   -23718.929    295.12111   -2.1823467   0.02185478  0.020176122   -2.1825494    153.63248    153.57052    3.3224281 
  116000       464000    9873.5964    -33590.19    276.00925  -0.10588949   -23716.593     295.6536   -2.6805195  0.028413192   0.02462454   -2.6807832    153.55248    153.47628    3.1575856 
  116200       464800    9952.5445   -33543.524    278.21618  0.025577097    -23590.98    167.83602   -3.8377725  0.040489005  0.034917069   -3.8381449    153.47248    153.36322    2.8497579 
  116400       465600    9882.8178   -33611.961    276.26702  0.013020448   -23729.143    304.06424    3.6833977 -0.039602773 -0.033641223    3.6837642    153.39248    153.49813    2.7851851 
  116600       466400    9893.0015   -33535.658     276.5517  0.099984812   -23642.657    216.79286   -3.4393993  0.036719291  0.032893013   -3.4397525    153.31248     153.2146    2.7853126 
  116800       467200    9906.5819   -33687.546    276.93133    0.0289716   -23780.964    355.99964    2.9763638 -0.031986178 -0.028235663    2.9766696    153.23248    153.31793     2.668806 
  117000       468000    9908.5226   -33589.125    276.98558 -0.076293701   -23680.603    255.66145    3.9258428 -0.040820709 -0.037647735    3.9262355    153.15248    153.26506    3.0277188 
  117200       468800     9930.463   -33770.378    277.59891  0.028583507   -23839.915    414.02676    1.8326147 -0.020150861 -0.018836828    1.8328223    153.07248    153.12524    3.1238625 
  117400       469600    9817.2742   -33793.984     274.4348   0.01403784    -23976.71    551.31791    2.4195747 -0.024556666 -0.026608161    2.4198457    152.99248    153.06202    3.3015136 
  117600       470400    9664.2449   -33509.054    270.15698   -0.0108723   -23844.809    420.06435    9.6734285  -0.09851468   -0.1109904    9.6745668    152.91248    153.18929    3.8261187 
  117800       471200    9780.2495   -33514.304     273.3998 -0.013413441   -23734.054    311.69937    8.0989009 -0.080858812  -0.08989944    8.0998034    152.83248     153.0643    4.5279827 
  118000       472000    9771.6772   -33643.579    273.16017 -0.056835604   -23871.902    449.20175    4.4967186 -0.044940911 -0.050334437    4.4972248    152.75248    152.88137    5.0262283 
  118200       472800    9860.9338   -33663.425    275.65527 -0.0035173745   -23802.491    379.43858    4.8035745 -0.051391806 -0.055379564    4.8041686    152.67248    152.81014    5.5226636 
  118400       473600    9913.5594   -33600.749    277.12639   0.16186798    -23687.19    263.99277    1.0427246  -0.01186215 -0.011474074    1.0428552    152.59248    152.62267    5.7978295 
  118600       474400    9736.9491   -33699.614    272.18937  0.072273496   -23962.665    539.72992    2.5962868 -0.030470731 -0.028098963    2.5966177    152.51248    152.58707     5.916556 
  118800       475200    9811.4397   -33614.766     274.2717  0.024271212   -23803.326    382.58593    1.6347679 -0.017699252 -0.015850774    1.6349405    152.43248    152.47959    6.1448526 
  119000       476000    9918.0086   -33620.595    277.25076 -0.062920635   -23702.587     281.2931  -0.74006772 0.0086858996 0.0073681777  -0.74015536    152.35248    152.33173    6.2151665 
  119200       476800    9909.9273   -33587.002    277.02485   0.08606886   -23677.074    256.40852    -2.257209  0.024882642  0.024557302   -2.2574798    152.27248    152.20838    6.0855421 
  119400       477600    9936.1697   -33608.273    277.75844 -0.0054331237   -23672.103    250.00249   -5.0938241  0.055874862  0.052197387    -5.094398    152.19248    152.04732     5.820286 
  119600       478400    9891.9783   -33595.113     276.5231 -0.017866786   -23703.135    280.69762   -7.7603056  0.083504563  0.084050263     -7.76121    152.11248    151.89113    5.3554455 
  119800       479200    9924.2471   -33559.961    277.42515  0.046698087   -23635.714    212.50436   -6.9428825  0.080072244  0.077785436     -6.94378    152.03248    151.83448    4.7820989 
  120000       480000    9792.1438   -33509.743     273.7323  -0.10095528     -23717.6    294.60365   -5.5325054  0.061673286  0.058669594   -5.5331602    151.95248    151.79479    4.2075516 
  120200       480800    9860.5134   -33493.662    275.64352  0.076957058   -23633.149    208.56097   -4.5844677  0.050501257  0.051022288   -4.5850297    151.87248    151.74188    3.7828976 
  120400       481600    9996.7075   -33518.253    279.45073    0.1171628   -23521.545    97.958955    -2.025976  0.022209527  0.021791132   -2.0262149    151.79248    151.73499    3.5254102 
  120600       482400     9920.023   -33566.934    277.30707 -0.052979497   -23646.911    224.34134   0.44431242 -0.004519062 -0.0050323236    0.4443639    151.71248    151.72557    3.4500459 
  120800       483200    9872.0979   -33779.698    275.96736 -0.067496416     -23907.6     484.6854     3.802208 -0.040435124 -0.040538522    3.8026391    151.63248    151.74152    3.5809586 
  121000       484000    9942.0869   -33752.512    277.92385 -0.094309107   -23810.425    385.87458    2.9326404 -0.030961208 -0.033648369    2.9329969    151.55248    151.63668    3.8612338 
  121200       484800    9733.8602   -33636.564    272.10302   0.03090577   -23902.704    477.41846    1.1037713 -0.011619377  -0.01187561    1.1038963    151.47248    151.50442    4.0469133 
  121400       485600    9884.1903   -33708.685    276.30539  0.043845513   -23824.494    399.61275    2.8406344 -0.028556956 -0.028816394     2.840924    151.39248    151.47405    4.1924442 
  121600       486400    9902.2721   -33563.911    276.81085  -0.05501531   -23661.639    240.38908     1.720264 -0.016172146 -0.017488399    1.7204289    151.31248    151.36203    4.4388393 
  121800       487200    9697.9193   -33729.498    271.09832  -0.09394032   -24031.579    610.84924    1.9564767 -0.019384235 -0.020693982    1.9566822    151.23248    151.28878    4.5615039 
  122000       488000    9817.2113   -33655.867    274.43304  0.015496122   -23838.655    415.49959  -0.53847942 0.0052098367 0.0057088598  -0.53853488    151.15248    151.13749    4.6095242 
  122200       488800    9854.2739    -33782.74     275.4691   0.22603399   -23928.466    502.55593   -4.0138158  0.040649759  0.042973353   -4.0142516    151.07248    150.95819    4.4513354 
  122400       489600    9796.8145   -33754.185    273.86287   0.05344689   -23957.371    533.12619   -3.0283141  0.032728686  0.033728487   -3.0286788    150.99248    150.90634    4.1349685 
  122600       490400     9875.389   -33688.692    276.05936  0.025814069   -23813.303     392.1681   -2.6391243  0.027426083   0.02836298   -2.6394192    150.91248    150.83747    3.9021289 
  122800       491200    9766.4296   -33547.618    273.01348 -0.045910268   -23781.189    361.05869   -3.6079875  0.038466154  0.038523176   -3.6083982    150.83248    150.72978    3.6392674 
  123000       492000    9909.2357    -33677.28    277.00552 -0.047687125   -23768.044    345.62546    -2.812507  0.032241458  0.031489688   -2.8128681    150.75248    150.67251    3.4606268 
  123200       492800    9856.2371   -33676.521    275.52398  0.018004125   -23820.284    396.36606    1.8589312 -0.020333572 -0.022718365    1.8591813    150.67248      150.726    3.3839808 
  123400       493600    9823.9042   -33828.308    274.62014  0.094012367   -24004.404    578.40344   -2.1593528  0.023612961  0.027567574   -2.1596578    150.59248    150.53117     3.291396 
  123600       494400    9850.1659   -33725.952    275.35426  0.056319318   -23875.786    450.70966   -3.6548934  0.042064602  0.045718116   -3.6554214    150.51248    150.40844    3.1384179 
  123800       495200    9864.2739   -33809.108    275.74864 -0.076972785   -23944.834    520.93526    -1.906851  0.021452657  0.023750044   -1.9071196    150.43248    150.37839    2.9548096 
  124000       496000    9800.6475   -33627.318    273.97001 -0.047665177    -23826.67    403.78612   -0.2971682 0.0031860416 0.0033084366  -0.29720369    150.35248    150.34439    2.8022915 
  124200       496800    9809.9442   -33663.254     274.2299 -0.025166806    -23853.31    429.08014   -5.7581049  0.061533172  0.071939411    -5.758883    150.27248    150.10834    2.5081236 
  124400       497600     9732.638   -33643.933    272.06886   0.12985922   -23911.295     484.9432   -3.8819261  0.039984202  0.050116925   -3.8824555    150.19248    150.08195    2.0806299 
  124600       498400    9908.8042   -33767.822    276.99346   0.15879988   -23859.018    431.71974   -4.1809682  0.039522174  0.047054597   -4.1814197    150.11248    149.99341    1.7166898 
  124800       499200    9839.2421   -33744.664     275.0489  -0.12597426   -23905.422    479.21968   -4.9076936  0.046652555  0.054783578   -4.9082211    150.03248    149.89264    1.2462275 
  125000       500000    9678.6726   -33551.126    270.56029  0.019110242   -23872.453    446.58054   -6.8688873   0.06549498  0.074752605   -6.8696063    149.95248     149.7566   0.80512649 
  125200       500800    9832.4823   -33564.754    274.85993 -0.022671283   -23732.272    307.53697   -3.4256059  0.030009902  0.033298119   -3.4258991    149.87248      149.775     0.531581 
  125400       501600    9785.8909   -33634.854     273.5575 -0.029746652   -23848.963    423.50935   0.99453616 -0.0092848007 -0.0099694129   0.99462946    149.79248     149.8213   0.39364036 
  125600       502400    9876.3184   -33666.196    276.08534 -0.057684516   -23789.877    362.10307  -0.70597076 0.0071605466 0.0073093252  -0.70604491    149.71248    149.69271   0.42462528 
  125800       503200     9808.468   -33687.783    274.18863   0.12771754   -23879.315    450.65913    1.8316159 -0.017905366 -0.019678457    1.8318091    149.63248    149.68522    0.4995923 
  126000       504000    9819.2879   -33606.966    274.49109  0.075824692   -23787.678    359.46225    6.9249765 -0.069245793 -0.075982401    6.9257396    149.55248    149.75076    0.8837269 
  126200       504800    9921.2419   -33596.897    277.34114  0.047099874   -23675.655      248.852    7.3492354 -0.072033987 -0.085257735    7.3500829    149.47248    149.68288    1.5273022 
  126400       505600    9911.1314   -33508.505    277.05851  -0.12484688   -23597.374     173.2032    2.7189745 -0.027165845 -0.032333001    2.7193024    149.39248    149.47057    1.8848898 
  126600       506400     9915.309   -33591.322    277.17529 -0.032984863   -23676.013    251.24967    3.7999329   -0.0387593 -0.046587966    3.8004161    149.31248    149.42146    2.2234261 
  126800       507200    9874.3421   -33639.876    276.03009 -0.012685314   -23765.534    338.95112    4.0510098 -0.040693492 -0.050423353     4.051528    149.23248    149.34864    2.5509813 
  127000       508000    9761.0607   -33621.118    272.86339 -0.039957158   -23860.058    433.75778    0.8502789 -0.0092494408 -0.010527941   0.85039438    149.15248    149.17718    2.6632397 
  127200       508800    9902.2257   -33754.222    276.80956  0.060890831   -23851.997    426.15978    1.9080444 -0.021142505 -0.022805268    1.9082978    149.07248     149.1274    2.7386479 
  127400       509600    9929.1017     -33635.3    277.56086 -0.024998053   -23706.199     282.0963   0.28797829 -0.0029836415 -0.0033425034   0.28801314    148.99248    149.00111    2.8286896 
  127600       510400    9834.8852   -33561.142     274.9271  -0.11196137   -23726.256      304.141    1.1951755 -0.012464137 -0.014417923    1.1953275    148.91248    148.94703    2.8943545 
  127800       511200    9771.2583   -33568.244    273.14846  -0.10039017   -23796.986    372.96921    2.0760662 -0.021814676 -0.025286882    2.0763348    148.83248     148.8922    2.9672871 
  128000       512000    9767.7597   -33676.614    273.05066    0.0223721   -23908.855    483.32547  0.044974775 -0.00044664539 -0.00053604176  0.044980187    148.75248    148.75416    3.2058959 
  128200       512800    9902.8612    -33561.52    276.82732  0.093889925   -23658.659    232.38586   -2.6723393  0.027224757  0.031162539   -2.6726597    148.67248    148.59652    3.0620922 
  128400       513600    9830.4228   -33682.197    274.80236  0.024105066   -23851.774    426.40602    7.0247605 -0.067973779 -0.080566602    7.0255513    148.59248    148.79361    3.3943637 
  128600       514400    9643.5759   -33614.046    269.57919 -0.046063103    -23970.47     547.8962    5.3396202 -0.052252542  -0.05873401    5.3401988    148.51248    148.66546     3.868993 
  128800       515200    9780.4464   -33529.141    273.40531  -0.03329014   -23748.694    326.99494    1.7268251 -0.018220614 -0.019524326    1.7270316    148.43248    148.48222    4.1718504 
  129000       516000    9895.2677   -33544.742    276.61505  0.005439235   -23649.475    225.07392    4.4318056 -0.047097409 -0.047069384    4.4323057    148.35248    148.47952    4.4552878 
  129200       516800    9808.2219   -33615.139    274.18175  0.061405255   -23806.917    380.59596    6.1923434  -0.06520431 -0.067344332    6.1930529    148.27248    148.44982    4.8979477 
  129400       517600     9780.596   -33796.617    273.40949 -0.00058529484   -24016.021    590.68055    5.3652676 -0.057372184 -0.056601161    5.3658728    148.19248    148.34619    5.4924452 
  129600       518400    9757.7404    -33556.63    272.77058  0.014651251   -23798.889    376.06257    1.7078406 -0.019786117 -0.017585833    1.7080458    148.11248    148.16168    5.5859131 
  129800       519200    9978.8287   -33584.829    278.95094 -0.031812528       -23606    184.04831    7.3513894 -0.079694452 -0.080800748    7.3522654    148.03248    148.24294    6.0051396 
  130000       520000    9768.0857   -33623.066    273.05977 -0.0007818298    -23854.98    435.28299   0.04849476 -0.00056792361 -0.00056879507  0.048501421    147.95248    147.95426    6.2858992 
  130200       520800    9804.1325   -33667.652    274.06743 -0.044350352   -23863.519    442.32155  -0.49629248 0.0058581208 0.0053192397  -0.49635556    147.87248     147.8587    6.2841397 
  130400       521600    9847.9481   -33781.354    275.29227 0.0036093867   -23933.406    509.62929   -1.7367032  0.019645687  0.019055558   -1.7369189    147.79248    147.74325    6.0489564 
  130600       522400    9823.5104   -33795.433    274.60913 0.0061300456   -23971.923    548.83742   -3.9843988  0.042352969  0.047667735    -3.984909    147.71248    147.59902    5.8133215 
  130800       523200    9922.4988   -33725.463    277.37628  -0.12414036   -23802.964    378.65015   -9.8624179   0.11077072   0.10548092   -9.8636039    147.63248    147.35106    5.2660441 
  131000       524000    9773.5388    -33697.28    273.21221 -0.041855741   -23923.741    501.00379   -7.8395448  0.087278405   0.08983963   -7.8405454    147.55248    147.32886    4.6119272 
  131200       524800    9873.7292   -33794.827    276.01296  -0.02806404   -23921.098    496.55593   -6.7254492  0.067941469  0.079320992   -6.7262601    147.47248     147.2807    3.9885842 
  131400       525600     9759.377   -33666.873    272.81633  0.032734488   -23907.496    481.74247   -4.4999976  0.046898998  0.055313233   -4.5005819    147.39248    147.26429    3.4231125 
  131600       526400    9813.6217   -33667.116     274.3327  0.089492542   -23853.494    425.92349   -3.9749244   0.04291185  0.045735587   -3.9754192    147.31248    147.19929    3.1435041 
  131800       527200      9864.44    -33703.93    275.75329  0.020522503    -23839.49    413.02477   -3.8120357  0.036013797  0.043017365   -3.8124485    147.23248    147.12395    2.8985428 
  132000       528000    9777.7297   -33684.393    273.32936 -0.031004149   -23906.663    479.42105   -1.2033305  0.012039247  0.013690501   -1.2034686    147.15248    147.11849    2.6638409 
  132200       528800    9784.3142   -33706.184    273.51343  0.044267517    -23921.87    494.21998   -1.3582215  0.014218069   0.01527882   -1.3583818    147.07248    147.03407    2.4970812 
  132400       529600    9858.1943     -33807.8    275.57869  0.093693624   -23949.606     522.5658   -2.5143845  0.024993792  0.029604623    -2.514683    146.99248    146.92103    2.3063846 
  132600       530400    9716.8689   -33559.653    271.62804    0.0219063   -23842.784     418.1171  -0.19143875  0.001938571 0.0024156784   -0.1914638    146.91248    146.90741    2.2847789 
  132800       531200    9670.9574   -33542.716    270.34462  -0.07700848   -23871.758    449.54894    1.1685631 -0.012432635 -0.014734354    1.1687221    146.83248    146.86627    2.3722829 
  133000       532000    9834.4187   -33645.112    274.91406 -0.095522315   -23810.693    388.96633    1.2605106 -0.013447038  -0.01592974     1.260683    146.75248     146.7889    2.4207683 
  133200       532800    9808.9836   -33671.535    274.20304 -0.040696058   -23862.551    435.75145   0.91693588 -0.0094289861 -0.011202362   0.91705278    146.67248    146.69908    2.4354731 
  133400       533600    9882.6219   -33900.841    276.26155  0.069795506   -24018.219    588.05335    4.4593102 -0.045734958 -0.054069698    4.4598725    146.59248     146.7203    2.6833854 
  133600       534400    9942.4368   -33877.736    277.93363    0.1188351   -23935.299    505.06093    2.5515832 -0.025224548 -0.030367458    2.5518886    146.51248    146.58579    2.9110453 
  133800       535200    9915.8693   -33720.233    277.19096 -0.014836808   -23804.364    380.81416  0.050383069 -0.00052619075 -0.00058263313  0.050389185    146.43248    146.43432    3.0614207 
  134000       536000    9988.3266   -33592.381    279.21645  -0.10729831   -23604.055    183.25481   -1.5800666  0.015098052  0.018453688   -1.5802464    146.35248    146.30773    2.9608658 
  134200       536800    9867.0793   -33657.597    275.82707  -0.10081035   -23790.518    369.72853   0.95695299 -0.010145342 -0.010818117   0.95706791    146.27248    146.30022    2.9177815 
  134400       537600    9778.7768   -33680.837    273.35863  0.019850012    -23902.06     477.1134    1.0009276 -0.011050896 -0.010918623    1.0010482    146.19248    146.22148     3.018225 
  134600       538400    9886.3314   -33681.296    276.36525   0.19016823   -23794.965    369.05222    1.9103515 -0.019361311 -0.021289467    1.9105682    146.11248    146.16747     3.015288 
  134800       539200    9793.6128   -33635.188    273.77336  -0.10334551   -23841.575    417.75916    2.8909685 -0.030599913 -0.033047922    2.8913193    146.03248    146.11549    3.3305337 
  135000       540000    9823.0945   -33691.257     274.5975  -0.04119382   -23868.162    446.11805    3.3293231 -0.033727541 -0.038125234    3.3297123    145.95248    146.04801    3.5626647 
  135200       540800    9889.6627   -33694.878    276.45837    0.1004374   -23805.215    381.55287     5.139731 -0.052392936 -0.059513653    5.1403426    145.87248    146.01974    3.8475763 
  135400       541600    9843.9871    -33815.21    275.18154  0.023655942   -23971.223    545.67201    2.1920706  -0.02481415 -0.025855712    2.1923635    145.79248    145.85552    4.3193721 
  135600       542400    9898.3581    -33770.09    276.70144  0.092731602   -23871.732    445.80052    4.5931138 -0.049946464 -0.055635525    4.5937222    145.71248    145.84413    4.4910129 
  135800       543200    9897.4961   -33689.214    276.67735 0.0080782563   -23791.718    369.16936   0.35689825 -0.0037200634 -0.0046200873   0.35694754    145.63248    145.64308    4.7132763 
  136000       544000    9849.1078   -33511.829    275.32469  0.034605333   -23662.721    242.82387   -5.7115543  0.055173733  0.071128389   -5.7122636    145.55248    145.38967    4.4299694 
  136200       544800     9767.486   -33432.452    273.04301  -0.10521994   -23664.966    244.09511   -7.4780348  0.070829539  0.090187893    -7.478914    145.47248    145.25919    3.8952059 
  136400       545600    9762.7811   -33589.232    272.91149   0.06323672   -23826.451    402.76791   -4.9697662  0.049242616  0.058615705   -4.9703557    145.39248    145.25087    3.4114537 
  136600       546400     9817.192    -33841.91     274.4325  0.041270931   -24024.718    596.66491   -4.3347448  0.045140971  0.052372086   -4.3352962    145.31248    145.18901    3.0955922 
  136800       547200    9780.8615   -33627.251    273.41691   0.11552476   -23846.389    418.98328    1.6681592 -0.018233868 -0.020215351    1.6683813    145.23248    145.28055    3.1183661 
  137000       548000    9859.3905   -33795.375    275.61213 -0.016778721   -23935.985    511.45776    3.0948762 -0.031996124  -0.03804201    3.0952753    145.15248    145.24131    3.3034564 
  137200       548800     9857.591   -33647.265    275.56183  -0.12781417   -23789.674     367.6005    4.8652142 -0.055503696  -0.06384885    4.8659497    145.07248    145.21191    3.5887652 
  137400       549600    9774.3062   -33679.161    273.23366 -0.017496239   -23904.855    483.08103    4.2022622  -0.04902701 -0.051568972    4.2028646    144.99248    145.11296    3.9551929 
  137600       550400    9770.3069   -33608.592    273.12186 -0.0055289497   -23838.286     416.3285    5.3574936 -0.062258125 -0.070877592    5.3583241    144.91248    145.06597    4.3751322 
  137800       551200    9782.4298   -33741.087    273.46075  0.028642535   -23958.657    534.70456    3.3245553  -0.03973464 -0.042572224    3.3250652    144.83248    144.92788    4.8143518 
  138000       552000    9807.1332   -33787.847    274.15132  0.034175342   -23980.714    555.81808   -1.9068904  0.021141103  0.025777051   -1.9071818    144.75248    144.69839    4.8848987 
  138200       552800    9792.1984   -33732.491    273.73383  0.093400779   -23940.292    514.30528   -7.4468562  0.088538351  0.096615476   -7.4480092    144.67248    144.46008    4.4565711 
  138400       553600    9856.6166   -33652.544    275.53459 -0.024973129   -23795.927    373.04668    -1.346166  0.014991223  0.017197101   -1.3463593    144.59248    144.55441    4.1521335 
  138600       554400    9890.8039   -33693.813    276.49027 -0.0032902392   -23803.009    380.88731   -3.1982326  0.036341442  0.039574478   -3.1986839    144.51248    144.42149    3.9589224 
  138800       555200      9927.31   -33587.035    277.51077  0.076218625   -23659.725     235.7739   -7.3779403  0.086867598  0.098528702   -7.3791095    144.43248    144.22205    3.4508753 
  139000       556000    9865.1188    -33746.93    275.77226  0.034494252   -23881.812    455.50891   -6.7387071  0.076055029  0.087430193   -6.7397034    144.35248    144.16032     2.928361 
  139200       556800    9878.9365   -33780.497    276.15853    0.0764951    -23901.56    474.41278   -2.5073218  0.025133569  0.033385572   -2.5076701    144.27248    144.20123    2.6280051 
  139400       557600    9938.8899   -33762.046    277.83448  -0.04092565   -23823.156    396.15248    3.8397512 -0.038016169 -0.050809498    3.8402755    144.19248     144.3026    2.6186784 
  139600       558400    9855.0703   -33740.298    275.49136 -0.082768781   -23885.228    459.25531    3.5991001 -0.036445187 -0.045626875    3.5995739    144.11248    144.21572    3.0150522 
  139800       559200    9861.9821   -33655.992    275.68458  0.017633431    -23794.01    368.69841    1.1283235 -0.012009341 -0.014866146    1.1284854    144.03248    144.06512    3.2701833 
  140000       560000    9856.8413   -33902.767    275.54087  0.024031701   -24045.926    619.58384  -0.46016847 0.0044169558 0.0058331488  -0.46022664    143.95248    143.93973    3.2517728 
  140200       560800    9851.4621   -33838.746     275.3905  0.074052328   -23987.284    561.00697  -0.17481625 0.0016862262 0.0022290909  -0.17483859    143.87248    143.86788    3.3215048 
  140400       561600    9803.7273   -33808.289    274.05611 -0.018162142   -24004.561    578.31248  -0.41913341 0.0046328184 0.0056177152  -0.41919666    143.79248     143.7809    3.3357795 
  140600       562400    9733.1796   -33824.056      272.084 -0.042093044   -24090.877    664.45681   0.64753376 -0.0066317932 -0.0093975623    0.6476359    143.71248    143.73138    3.3226252 
  140800       563200    9839.7541   -33839.824    275.06321  0.031996635    -24000.07    573.80136   -3.3044366  0.035959658  0.045702652   -3.3049482    143.63248    143.53845    3.1629616 
  141000       564000    9689.9656   -33657.188    270.87598  0.063817505   -23967.222    540.65625     2.209638 -0.023691059 -0.032221161    2.2099999    143.55248    143.61602    3.1356041 
  141200       564800    9840.3545   -33598.713    275.07999  0.054824196   -23758.358    333.73485   0.67500913 -0.0076559857 -0.009723722   0.67512258    143.47248    143.49217    3.1892003 
  141400       565600    9877.2028   -33700.669    276.11006  0.059333625   -23823.466    399.54104    4.0148071 -0.049672838  -0.05461804    4.0154859    143.39248    143.50761    3.4285285 
  141600       566400    9791.2042   -33803.685    273.70603 -0.028152224   -24012.481    587.76782    2.0674797 -0.025656347 -0.025749438    2.0677992    143.31248    143.37196    3.5655381 
  141800       567200    9896.1812   -33687.303    276.64059  0.067419125   -23791.121    366.22899    2.3585666  -0.03032608 -0.030062135    2.3589531    143.23248    143.30028    3.7437101 
  142000       568000     9853.919   -33874.782    275.45918 -0.058985845   -24020.863    597.25703    2.5602137 -0.032346202   -0.0307104    2.5606022    143.15248    143.22604    3.9679615 
  142200       568800     9886.893   -33686.981    276.38094 -0.0044541391   -23800.088    376.27876    2.3417618 -0.031680096  -0.02871523    2.3421521    143.07248     143.1398    4.1271867 
  142400       569600    9897.2703   -33645.847    276.67103  0.034860565   -23748.576    324.34756   0.21083961 -0.0026503032 -0.0027151775   0.21087374    142.99248     142.9989    4.2972761 
  142600       570400    9704.2731   -33564.542    271.27594 0.0094673594   -23860.269    435.62061    -2.286732  0.028621395  0.028245232   -2.2870855    142.91248    142.84753    4.1143942 
  142800       571200    9791.7502   -33631.845     273.7213 -0.0026494018   -23840.095    416.60155   -1.4365862  0.018801238  0.018208675   -1.4368246    142.83248    142.79183    3.9376777 
  143000       572000    9965.0057   -33661.779    278.56453 -0.038735975   -23696.773    273.35399   -1.0437983  0.013335685  0.013898003    -1.043976    142.75248    142.72305    3.8977861 
  143200       572800    9890.8184   -33670.376    276.49068   0.11353195   -23779.558    354.79065  -0.93277946  0.011653539  0.012446563  -0.93293528    142.67248    142.64622    3.8057819 
  143400       573600    9693.2341   -33753.512    270.96735   0.10290046   -24060.278    634.11148    2.7176172 -0.035254093 -0.036823378    2.7180953    142.59248    142.67054    3.9329753 
  143600       574400     9770.108   -33859.334     273.1163  -0.13388694   -24089.226     664.4449    2.2638035 -0.027808618 -0.029392886    2.2641651    142.51248    142.57757    4.0494743 
  143800       575200    9960.8202   -33650.011    278.44753   0.11254152   -23689.191    267.24539    3.1921249 -0.041092519 -0.042378918    3.1926707    142.43248     142.5241    4.2557087 
  144000       576000    9877.6842   -33697.764    276.12352  -0.12055447    -23820.08    399.05086    2.0132367 -0.023715478 -0.028266136    2.0135748    142.35248    142.41041    4.5649738 
  144200       576800    9912.6054   -33738.116    277.09972  -0.10113193   -23825.511    403.21899    0.1476746 -0.0018581979 -0.0019257114   0.14769885    142.27248     142.2771    4.6873746 
  144400       577600    9788.2921   -33825.485    273.62463  0.034890255   -24037.193    612.12362   0.81583616 -0.010251953 -0.011670694   0.81598404    142.19248    142.21619     4.721896 
  144600       578400    9849.8058   -33862.382     275.3442   0.11602306   -24012.576    586.25076   -4.2019008  0.048802242  0.060361027   -4.2026177    142.11248     141.9928    4.5366882 
  144800       579200    9919.2568   -33799.143    277.28565 -0.080614389   -23879.887    456.08483   -2.9590778  0.037114038  0.041801842   -2.9596058    142.03248    141.94832    4.3011356 
  145000       580000    9924.4619   -33785.187    277.43116  -0.19263678   -23860.725    438.21271   -2.1513794  0.025672275  0.029421039   -2.1517337    141.95248     141.8914    4.0805659 
  145200       580800    9771.9895   -33814.288     273.1689  -0.10138985   -24042.299    617.73581   -2.7414215  0.036444288  0.037232781   -2.7419166    141.87248    141.79454    3.9146646 
  145400       581600    9910.8756   -33827.447    277.05136 -0.035968484   -23916.572     489.7864   -4.5991117  0.058046243  0.063581464   -4.5999174    141.79248    141.66145    3.6284164 
  145600       582400    9858.2783   -33910.738    275.58104 -0.0055244883    -24052.46     624.4533   -5.7410275  0.071144861  0.082131374   -5.7420557    141.71248    141.54882    3.1641086 
  145800       583200    9822.5252   -33761.479    274.58159  0.033828557   -23938.953    513.49057   -2.1241839  0.025840992  0.029794484     -2.12455    141.63248    141.57218    2.8934951 
  146000       584000    9910.5983   -33679.878    277.04361 -0.045540696    -23769.28    345.16651   -5.1611613  0.069868703  0.072100022   -5.1621377    141.55248    141.40539    2.6076988 
  146200       584800    9975.8246   -33833.438    278.86696 -0.0014994933   -23857.613     432.5403   -1.3510788  0.019293824  0.020417127   -1.3513708    141.47248    141.43427    2.3175544 
  146400       585600    9899.2841   -33680.637    276.72733  0.086820304   -23781.353    354.97588   -3.1542166  0.044405332  0.050251552   -3.1549294    141.39248    141.30274    2.2174806 
  146600       586400    9849.0358    -33741.32    275.32267  0.067881489   -23892.284    466.54918   -0.8102574  0.011692296  0.012031542  -0.81043107    141.31248    141.28972    2.0018697 
  146800       587200    9873.9411   -33727.766    276.01888 -0.086628391   -23853.824    429.64641    6.6423892  -0.10226677  -0.10623767    6.6440258    141.23248    141.42271    2.2695325 
  147000       588000    9831.4133   -33656.097    274.83005 -0.040323492   -23824.684    400.82393    1.0577307 -0.017359638 -0.017005618    1.0580098    141.15248    141.18311    2.4748415 
  147200       588800    9949.9124   -33789.207    278.14261  0.043809787   -23839.295    414.46946    1.6163945 -0.025971287 -0.025758153    1.6168083    141.07248    141.11907    2.5823269 
  147400       589600    9777.4054   -33727.123     273.3203  0.080860208   -23949.718    524.77827 -0.047147366 0.00074644375 0.00077788857 -0.047159691    140.99248    140.99153    2.7159641 
  147600       590400    9995.0716   -33915.382      279.405  -0.07066449    -23920.31    495.17911    6.5040712  -0.10587492  -0.10164377     6.505727    140.91248    141.09876    2.9507339 
  147800       591200    9833.4042   -33636.908     274.8857  -0.03849579   -23803.504    377.72747    7.7883903  -0.11859643  -0.11901719    7.7902024    140.83248    141.05546     3.519052 
  148000       592000    9854.5387   -33650.339     275.4765   0.01524894     -23795.8    370.76411    6.7379885 -0.097335033 -0.097280381    6.7393936    140.75248    140.94543    4.1058918 
  148200       592800    9752.4391   -33676.779    272.62238  0.011869693    -23924.34    499.37721    4.4276828 -0.063960187 -0.065041787    4.4286224    140.67248    140.79941    4.6719398 
  148400       593600    9839.1876   -33778.753    275.04737 -0.072351536   -23939.565    515.39676    7.4956594  -0.10425463  -0.10752913    7.4971555    140.59248    140.80708    5.0597861 
  148600       594400    9870.6396   -33760.912    275.92659  0.099889242   -23890.272    466.44052    2.8598197 -0.034079465  -0.04217256    2.8603337    140.51248     140.5946    5.4785154 
  148800       595200    9870.5722   -33734.367    275.92471 0.0026922296   -23863.795    440.46771  -0.11754021 0.0014310114 0.0016648618  -0.11756071    140.43248    140.42952    5.6665612 
  149000       596000    9888.2042   -33653.635     276.4176  -0.02985313    -23765.43    341.75008   -1.2130342  0.016236905  0.017341915   -1.2132668    140.35248    140.31821    5.5750787 
  149200       596800    9884.2761   -33705.123    276.30779 -0.003207701   -23820.847    397.90544   -3.3363741  0.043209517  0.043105464   -3.3369324    140.27248    140.17754    5.4737944 
  149400       597600    9859.8698   -33675.097    275.62553 -0.059646984   -23815.227    393.58546   -5.6011501  0.076277482  0.075191984   -5.6021741    140.19248    140.03282    5.0994706 
  149600       598400    9844.5633   -33674.662    275.19765 -0.080415055   -23830.099    408.36166   -3.2737543  0.045455182  0.047832106   -3.2744193    140.11248    140.01932    4.8835856 
  149800       599200    9858.1297   -33683.884    275.57689 0.0043966244   -23825.754    401.28021    -5.350005  0.077641392  0.080318674   -5.3511712    140.03248    139.87999    4.5355021 
  150000       600000    9863.5216    -33711.24    275.72762  0.010173739   -23847.719    422.95556   -5.1729524  0.075832606  0.074402648   -5.1740432    139.95248    139.80505    4.0987856 
  150200       600800    9809.7122   -33694.498    274.22341 -0.060604139   -23884.786    460.10779   -1.3388013  0.019778464  0.020710888   -1.3391075    139.87248    139.83462    3.8644509 
  150400       601600    9822.5449   -33602.638    274.58214 -0.066579514   -23780.093    355.47848   -5.3094028  0.078066505  0.082236773   -5.3106135    139.79248    139.64115    3.6147785 
  150600       602400    9828.1045    -33642.87    274.73755 -0.080429392   -23814.766    391.62693   0.45807034 -0.0065774359 -0.0070766817   0.45817221    139.71248    139.72597    3.5875429 
  150800       603200    9896.5008   -33744.987    276.64952  -0.10833385   -23848.486    424.68432   -2.0255527  0.030227064  0.030776834    -2.026012    139.63248    139.57499    3.4488224 
  151000       604000    9840.1495   -33782.392    275.07426  0.029191338   -23942.243    516.76559   -3.2292907  0.045202717  0.050971827   -3.2300093    139.55248    139.46059     3.248886 
  151200       604800    9899.4461    -33624.63    276.73186   0.12459876   -23725.183    298.43136  -0.53442477 0.0072884531 0.0083860477  -0.53454025    139.47248    139.45761    3.1364015 
  151400       605600    9813.2672   -33648.979    274.32279   0.14313178   -23835.712    409.18166   -1.7252056  0.022798778  0.027624578   -1.7255774    139.39248    139.34358    3.0448393 
  151600       606400    9935.4691   -33815.251    277.73885  -0.10895759   -23879.782    454.50394     2.454823 -0.030869133 -0.040729271    2.4553549    139.31248    139.38303    2.9449484 
  151800       607200    9991.2917   -33601.449    279.29934 -0.080334805   -23610.157    186.42134  -0.23388905 0.0031607257 0.0036723241  -0.23393923    139.23248    139.22619    2.9707356 
  152000       608000    9785.5422   -33602.914    273.54776  0.036286522   -23817.372    391.97019   -3.3719393  0.045194216  0.051136349   -3.3726299    139.15248    139.05652    2.9168999 
  152200       608800      9814.18   -33798.443     274.3483   0.12744413   -23984.263      557.066   -4.1968256  0.058851737  0.063776947   -4.1977227    139.07248    138.95294    2.6096958 
  152400       609600    9807.7072   -33742.474    274.16736  0.014320051   -23934.767    507.87594   -3.7512404  0.054677822  0.055846701   -3.7520545    138.99248    138.88568    2.2860383 
  152600       610400    9815.1012   -33750.548    274.37406 -0.0089737405   -23935.446    510.11189   -1.0347359  0.016107314   0.01556104   -1.0349783    138.91248    138.88331    1.9722718 
  152800       611200    9933.8606   -33822.933    277.69389 -0.038555049   -23889.072    463.40012  -0.89249053  0.014056669  0.012859264  -0.89269384    138.83248    138.80737     1.981876 
  153000       612000    9835.8402   -33821.389     274.9538  0.015764192   -23985.549    557.71072    -2.367405  0.035582903  0.035519947   -2.3679388    138.75248    138.68522    1.7879597 
  153200       612800    9828.7144   -33944.816     274.7546  0.029108389   -24116.101      687.265    2.5261697 -0.036887801  -0.03772485    2.5267207    138.67248    138.74507    1.7985862 
  153400       613600    9747.7714     -33771.3     272.4919  0.038041092   -24023.529    595.97365   0.95735375 -0.014544328 -0.014827184   0.95757902    138.59248    138.62024      1.90251 
  153600       614400    9918.2711   -33677.542     277.2581 -0.084795674   -23759.271    334.21182   0.78975646 -0.012171174 -0.012529507   0.78994961    138.51248    138.53545    2.1109994 
  153800       615200     9828.156   -33645.783    274.73899 -0.085048665   -23817.627    394.58266  0.056497028 -0.00092238343 -0.00092700686   0.05651216    138.43248    138.43449    2.1432922 
  154000       616000    9813.1031   -33698.535     274.3182 -0.071065446   -23885.432    460.17918    4.9062934 -0.083058419 -0.079479241      4.90764    138.35248     138.4931    2.3173817 
  154200       616800    9895.9131   -33851.212    276.63309 -0.043061523   -23955.299    528.06438    5.0665564  -0.08551868 -0.079297718    5.0678985    138.27248    138.41768    2.7370645 
  154400       617600    9952.7601   -33695.577    278.22221  0.083147047   -23742.817     315.5278    7.8077146  -0.13170455  -0.12453609    7.8098183    138.19248    138.41602    3.2504452 
  154600       618400    9750.4665   -33712.003    272.56724 -0.080082429   -23961.537    537.77949    1.0338666 -0.016787093 -0.015892761    1.0341251    138.11248    138.14242    3.6631718 
  154800       619200    9889.0166   -33696.814    276.44031 -0.055945899   -23807.798    385.87758     4.853426 -0.080379142 -0.072754847    4.8546367    138.03248    138.17158    3.7632699 
  155000       620000    9729.5431   -33701.672    271.98234 -0.017503583   -23972.129     551.2734    4.8297565 -0.080752197 -0.073770417    4.8309949    137.95248    138.09091    4.1477332 
  155200       620800    9754.6682   -33705.713     272.6847 -0.041735143   -23951.044    527.89405    5.1528964 -0.081773846 -0.080656801    5.1541763    137.87248    138.02014    4.6421531 
  155400       621600     9803.921   -33828.343    274.06152  0.078569376   -24024.422    599.58251    1.1495956 -0.017841688 -0.017079438    1.1498608    137.79248    137.82573     4.872249 
  155600       622400    9889.9654   -33911.952    276.46683   0.10537185   -24021.987    597.00229    3.0756829 -0.049841339 -0.046094787    3.0764321    137.71248    137.80078     5.060067 
  155800       623200    9914.7614   -33750.147    277.15999  0.049859184   -23835.386    413.70343    2.9276564 -0.048743457 -0.047611188    2.9284492    137.63248    137.71655    5.3175828 
  156000       624000    9776.3999   -33594.987    273.29219 -0.033512086   -23818.587    399.97232  -0.11424146 0.0018237285 0.0018845444  -0.11427155    137.55248    137.54961     5.409717 
  156200       624800    9861.5705   -33658.075    275.67307 -0.0022080732   -23796.505    377.88984   -0.9327758  0.014804021  0.016714994    -0.933043    137.47248    137.44622    5.3856359 
  156400       625600    9829.5445   -33665.484    274.77781  0.084230733   -23835.939    414.57631   -3.1269904  0.051723187  0.058525779   -3.1279657    137.39248    137.30351    5.2799827 
  156600       626400      9762.85   -33634.142    272.91341 -0.042890808   -23871.292     448.1507   -1.3140629  0.022512631  0.024327279   -1.3144808    137.31248    137.27532    5.0322164 
  156800       627200    9858.5931   -33747.045    275.58984   0.11533644   -23888.452    463.96888    1.3912822 -0.025353317 -0.025287394     1.391743    137.23248    137.27264    4.9846394 
  157000       628000    9816.3203    -33886.68    274.40813  -0.03612835    -24070.36    646.58165   -1.0579661  0.018764023  0.019146082   -1.0583057    137.15248    137.12264    5.1050746 
  157200       628800    9934.0261   -33564.269    277.69852  -0.07311934   -23630.243    207.24266   -4.1686956  0.070705091  0.072066315    -4.169918    137.07248    136.95374    4.9491266 
  157400       629600    9859.7128   -33722.219    275.62114  0.027513118   -23862.506    439.28459   -9.6503219   0.17439196   0.17135829   -9.6534185    136.99248    136.71707    4.3633692 
  157600       630400     9887.224   -33516.109     276.3902    0.1069177   -23628.885    205.97774   -4.5843357  0.081750207  0.081208388   -4.5857837    136.91248    136.78186    3.7669234 
  157800       631200     9779.288   -33570.269    273.37293  0.021446945   -23790.981    368.60922   -2.1838811  0.038740815  0.038866876   -2.1845705    136.83248    136.77046    3.4895481 
  158000       632000    9716.0826    -33603.23    271.60606  -0.12854056   -23887.147    462.89119    -7.194397    0.1313715   0.12491913   -7.1966805    136.75248    136.54726     3.131766 
  158200       632800    9783.5628   -33740.487    273.49242    0.1198872   -23956.924    531.60721   -1.7623386   0.03093702  0.030676939    -1.762877    136.67248    136.62251    2.7783892 
  158400       633600    9794.8581   -33640.278    273.80818  0.061469738    -23845.42    419.21286   -3.0177311  0.052906448    0.0499898   -3.0186088    136.59248    136.50663    2.5420249 
  158600       634400    9759.0324   -33684.968    272.80669  0.036038132   -23925.936    499.89549   -2.5834269  0.043790112  0.041355973    -2.584129    136.51248    136.43905    2.3206229 
  158800       635200    9868.4025   -33543.631    275.86406  0.066288884   -23675.228    251.15157   0.94563033 -0.015747801 -0.015108107   0.94588212    136.43248     136.4599    2.1545935 
  159000       636000    9776.8553   -33541.452    273.30492 -0.051578679   -23764.596    341.36718  -0.12251285 0.0019080966 0.0020388787  -0.12254468    136.35248    136.34938    2.3067445 
  159200       636800    9658.0989   -33587.151    269.98517 -0.068603941   -23929.052    505.71856   0.50703605 -0.0078888114 -0.0083881638   0.50716679    136.27248    136.28737     2.287237 
  159400       637600    9783.7785   -33698.643    273.49845  0.036702217   -23914.865     489.6907    1.9915581 -0.031946692 -0.033868043    1.9921022    136.19248     136.2498     2.409037 
  159600       638400    9810.1756   -33640.147    274.23636  0.089701972   -23829.971    403.82855    4.4321971 -0.069823933   -0.0765695    4.4334084    136.11248    136.23955    2.7218567 
  159800       639200    9841.4203   -33644.608    275.10979  0.058895129   -23803.188    377.60896    6.5353164  -0.10795146  -0.10910605    6.5371185    136.03248    136.21965    3.2293658 
  160000       640000     9806.748   -33713.387    274.14055 -0.006927027   -23906.639    482.26158    5.1538268 -0.085282917 -0.094336824    5.1553956    135.95248    136.10018    3.5958617 
  160200       640800    9928.3919     -33678.7    277.54102  0.066714332   -23750.308    327.49831    4.6399842 -0.078949071 -0.084495329     4.641425    135.87248    136.00549    4.0345619 
  160400       641600    9902.4244    -33660.86    276.81511  0.031037528   -23758.436    335.43228     5.758695  -0.10067609  -0.10797472     5.760587    135.79248    135.95747    4.4660229 
  160600       642400     9919.265   -33764.302    277.28588   0.01491581   -23845.037    421.33788    1.6926178 -0.030288723 -0.031758641    1.6931867    135.71248    135.76125    4.8309027 
  160800       643200    9862.3781   -33720.564    275.69565  0.014698367   -23858.186    434.08391  -0.17413113 0.0031524893  0.003290866  -0.17419076    135.63248     135.6279    4.8180233 
  161000       644000    9765.2924   -33773.647    272.98169 -0.0069020006   -24008.355     584.5756   -0.7336859  0.013191905  0.013441048  -0.73392757    135.55248    135.53191    4.8390367 
  161200       644800    9762.5348   -33604.671     272.9046   0.02869728   -23842.136    419.32042   -4.1819355  0.072618724  0.077916759   -4.1832916    135.47248    135.35336    4.6340231 
  161400       645600    9808.3048   -33545.273    274.18407  0.037846128   -23736.968    315.09452   -4.7241111  0.078595059  0.082190912   -4.7254797    135.39248    135.25786    4.2141215 
  161600       646400    9793.9828   -33518.657    273.78371 -0.057189248   -23724.674    303.20051   -2.9364362  0.049554383  0.051494351   -2.9373057    135.31248    135.22896    3.9475474 
  161800       647200    9890.6831   -33525.544    276.48689 -0.056771821   -23634.861    213.53463   0.49576422 -0.0081337719 -0.0085316593   0.49590433    135.23248    135.24705    3.7444809 
  162000       648000     9812.619   -33594.323    274.30467  0.025438033   -23781.704    358.90536   -3.1734955   0.05308099  0.056175861   -3.1744365    135.15248    135.06218    3.7739742 
  162200       648800    9773.2406   -33617.776    273.20387  -0.02594217   -23844.535    419.39721   -3.4658055   0.05750633  0.058395849   -3.4667744    135.07248    134.97383    3.5297065 
  162400       649600    9785.7997   -33501.164    273.55495  0.065195191   -23715.364    291.00856    1.4831143 -0.026479695 -0.024480324    1.4835526    134.99248    135.03527    3.3615975 
  162600       650400    9826.0817   -33546.952    274.68101  -0.12223978    -23720.87    298.45167     1.153754 -0.019513513 -0.019727224    1.1540876    134.91248    134.94585    3.5481206 
  162800       651200    9753.3383   -33563.528    272.64752  -0.13436323    -23810.19    388.77743    -2.177802   0.03779308  0.037973521   -2.1784609    134.83248    134.77064     3.536604 
  163000       652000    9766.7898   -33599.733    273.02355 -0.042403923   -23832.943    409.42434    3.5684033  -0.06315971 -0.060573094    3.5694762    134.75248    134.85486    3.6734216 
  163200       652800    9814.0793   -33787.363    274.34549  0.071505248   -23973.283     546.2265    2.2179668 -0.036986494 -0.038485613     2.218609    134.67248    134.73627    3.7942316 
  163400       653600    9897.6939   -33785.816    276.68288   0.10991161   -23888.122    461.11488   -4.5478433  0.073859003  0.081227986   -4.5491682    134.59248     134.4629     3.723588 
  163600       654400     9916.354   -33607.528     277.2045 -0.0061463347   -23691.174    266.17195    -5.795341  0.094415583   0.10191552    -5.797006    134.51248    134.34725    3.2632256 
  163800       655200    9868.4041   -33686.107     275.8641  -0.15425257   -23817.703    395.57366    -2.623997  0.042401117  0.046491614   -2.6247513    134.43248    134.35789    2.9020421 
  164000       656000    9718.8842   -33606.048    271.68438 0.0054592395   -23887.164    463.56475   -1.6335936  0.024706879  0.028221894   -1.6340242    134.35248    134.30619    2.6472987 
  164200       656800    9858.2426   -33619.813    275.58004  0.030039101    -23761.57    336.10213  -0.52866439 0.0080448509 0.0091637906    -0.528805    134.27248    134.25777    2.6345298 
  164400       657600    9852.2166   -33669.586    275.41159 -0.047257221   -23817.369    390.22665   -4.6170344  0.070775209  0.077643302   -4.6182295    134.19248    134.06093    2.4822581 
  164600       658400    9804.3468   -33663.154    274.07343 -0.004460735   -23858.808    431.97648   -2.6964298  0.039735841  0.046692712   -2.6971268    134.11248    134.03582    2.0649604 
  164800       659200     9839.668   -33660.397     275.0608 -0.035191908   -23820.729    395.79245   -1.6356566  0.024985792  0.029239871   -1.6361088    134.03248    133.98613    1.9007354 
  165000       660000    9856.7214   -33713.864    275.53752 0.0062020993   -23857.142    432.52691   0.13919328 -0.0021107789 -0.0025487295   0.13923261    133.95248    133.95686    1.7841462 
  165200       660800    9839.4292   -33688.215    275.05413  0.080187763   -23848.786    423.26133   0.14333242 -0.0022069022 -0.0027332061   0.14337546    133.87248    133.87697    1.8965701 
  165400       661600    9921.3044   -33756.755    277.34289  0.034487744    -23835.45    409.25422    4.3431236 -0.074179102 -0.079739867    4.3444889    133.79248    133.91701    2.0777906 
  165600       662400    9959.0891   -33712.142    278.39913 -0.066157342   -23753.053    327.13942    7.8954843  -0.13453043  -0.14317085    7.8979281    133.71248    133.93853    2.6184366 
  165800       663200    9721.6748   -33658.313    271.76239 -0.018699683   -23936.638    512.39525    2.8813628 -0.051047963 -0.054317206    2.8823269    133.63248    133.71523    3.0091078 
  166000       664000    9796.6497    -33536.85    273.85826 0.0079762071   -23740.201    315.36607    5.4182421  -0.10260201 -0.099699483    5.4201305    133.55248    133.70774    3.2951254 
  166200       664800    9927.7764   -33516.378    277.52381  0.067301825   -23588.602    165.13216    2.9435381  -0.05352853 -0.054715569    2.9445332    133.47248    133.55701    3.5712841 
  166400       665600    9915.2988    -33723.42    277.17501  0.019052731   -23808.121    384.85599   0.61635896 -0.011283072 -0.011210359   0.61656414    133.39248    133.41049    3.6816118 
  166600       666400    9777.4965   -33624.332    273.32285 -0.0074627692   -23846.836    422.56517    2.4541017 -0.046190564 -0.045605881      2.45496    133.31248    133.38302     3.877092 
  166800       667200    9824.4847   -33695.638    274.63637  0.044385998   -23871.153    446.16691    2.7883938 -0.053767151 -0.053096673    2.7894175    133.23248    133.31258    4.0197719 
  167000       668000    9974.0394   -33572.463    278.81706   0.11432196   -23598.424    172.98141     4.017251 -0.073678454 -0.078354349    4.0186905    133.15248     133.2677    4.3815077 
  167200       668800    9811.9009    -33536.52    274.28459  0.045272708   -23724.619    300.51528    5.4161745   -0.1023045  -0.10972946    5.4182519    133.07248    133.22769    4.7483037 
  167400       669600    9965.6222   -33491.911    278.58176  0.053394212   -23526.289    104.77572    1.8701021 -0.033169381 -0.038328577    1.8707889    132.99248    133.04633    5.0886543 
  167600       670400    9840.9785    -33599.09    275.09744 -0.020436962   -23758.112    337.78483   0.95035284 -0.016526721 -0.019842028   0.95070361    132.91248    132.94004    5.0755365 
  167800       671200     9810.867    -33581.54    274.25569 -0.091180043   -23770.673    348.88594    0.4716988 -0.0081705349 -0.0095544106   0.47186629    132.83248    132.84636    5.2406771 
  168000       672000    9818.7344   -33693.916    274.47562 0.0043780272   -23875.182    452.43775   -3.9090671   0.06829674  0.075434975   -3.9103913    132.75248    132.64115    5.1159618 
  168200       672800    9805.8938   -33681.696    274.11667   0.04221353   -23875.802     452.1833   -4.0615755  0.070657892   0.07626718    -4.062906    132.67248     132.5568      4.81084 
  168400       673600    9781.2722   -33645.637    273.42839  0.076252597   -23864.364    441.14485   -5.7160852   0.10674036    0.1060261   -5.7180648    132.59248     132.4295    4.4486999 
  168600       674400    9725.1983   -33675.306    271.86089 -0.00012379758   -23950.108    525.77317   -7.4970884   0.13059123   0.14009931   -7.4995344    132.51248    132.29861      3.84069 
  168800       675200    9745.4062   -33789.266    272.42578 -0.0054365033    -24043.86    620.01742   -4.0611252  0.073072826  0.078803462   -4.0625469    132.43248    132.31681    3.3878591 
  169000       676000    9880.3135   -33688.452    276.19702  0.063395199   -23808.138    385.04086   -3.0642144  0.056783018  0.057870812   -3.0652868    132.35248     132.2653    3.0843274 
  169200       676800    9767.4821   -33614.273     273.0429  -0.12237733   -23846.791    423.94452  -0.61022806  0.011628945  0.011682338  -0.61045065    132.27248    132.25544    2.8517083 
  169400       677600    9845.4085   -33714.857    275.22127  0.045853825   -23869.448     445.7033  -0.62459592  0.011890598  0.011528645  -0.62481546    132.19248    132.17503     2.773848 
  169600       678400    9819.7979   -33739.995    274.50535   0.01045778   -23920.197    495.21954  -0.55972395  0.010804807  0.010645773  -0.55992944    132.11248    132.09688    2.8223335 
  169800       679200    9853.4901   -33614.147    275.44719  0.022993958   -23760.657    335.64288    1.8760195 -0.036605574  -0.03570598    1.8767163    132.03248     132.0865    2.8445617 
  170000       680000    9903.4629   -33759.567    276.84414 -0.084299071   -23856.104    431.62081    2.6316286    -0.052181 -0.050830728    2.6326367    131.95248     132.0281    2.9753076 
  170200       680800    9981.6128   -33784.945    279.02877 -0.014097682   -23803.332    378.86482    5.3373407  -0.10220988  -0.10182238    5.3392903    131.87248    132.02543    3.2817798 
  170400       681600     9778.099    -33670.45    273.33969  -0.11501065   -23892.351    467.03577    4.0485945 -0.076848303  -0.07532333    4.0500242    131.79248    131.90859    3.6585303 
  170600       682400    9828.1595   -33709.298    274.73909  0.079140411   -23881.139    455.60938   0.41555088 -0.0080220184 -0.0080136983   0.41570555    131.71248    131.72476    3.8730549 
  170800       683200    9686.6937    -33841.34    270.78452  -0.09484324   -24154.646    728.27242   -2.0121064   0.03934017  0.039185634   -2.0128724    131.63248    131.57537    3.7131216 
  171000       684000    9796.8868   -33727.184    273.86489   0.07111623   -23930.297    502.81782    -3.910388   0.07581845  0.075639103   -3.9118543    131.55248    131.44111    3.5056485 
  171200       684800     9939.548   -33680.671    277.85288 -0.004245718   -23741.123    314.82727   -3.3215107  0.066599036  0.061740156   -3.3227519    131.47248    131.37794    3.1376449 
  171400       685600    9720.9885   -33521.156     271.7432  0.022890782   -23800.167    375.03257   -2.0506334  0.040926591  0.038907142   -2.0514107    131.39248    131.33427    2.9852236 
  171600       686400    9802.9677   -33616.266    274.03487  0.019198592   -23813.298    389.12402  -0.49983775  0.010013641 0.0094690411  -0.50002772    131.31248    131.29859    2.8681286 
  171800       687200    9817.1886   -33621.425    274.43241  0.012625971   -23804.237    379.25156  -0.96797063   0.01802696  0.018942361  -0.96832377    131.23248    131.20521    2.7437547 
  172000       688000    9705.7774   -33700.828    271.31799  0.085605086   -23995.051    568.76638    3.7643907 -0.068852675 -0.070466279    3.7656797    131.15248    131.26047    2.8771228 
  172200       688800    9886.1852   -33661.091    276.36116  0.047478513   -23774.906    350.03092    3.9566217 -0.069693261 -0.077994046    3.9580039    131.07248    131.18596     3.140401 
  172400       689600    9783.7656   -33617.905    273.49809 -0.040969729    -23834.14    409.62336    6.3199211  -0.11299989  -0.11480215    6.3219736    130.99248    131.17351    3.6353897 
  172600       690400    9812.0649   -33586.386    274.28918 -0.060985751   -23774.321     350.5469    6.7272813  -0.11923242  -0.12122086    6.7294297    130.91248    131.10515    4.1840921 
  172800       691200    9847.5735   -33693.947     275.2818  0.066585765   -23846.373    421.01437    5.7364993  -0.10115652  -0.10716873    5.7383919    130.83248    130.99683    4.6710097 
  173000       692000    9734.6601   -33891.489    272.12538  0.022939792   -24156.829    732.70202    5.0362406 -0.090686247  -0.10024529    5.0380545    130.75248    130.89682    5.1292885 
  173200       692800    9740.5521   -33663.016    272.29009  0.070132751   -23922.464    498.70135  -0.79856449  0.014496323  0.014918616  -0.79883538    130.67248    130.65005    5.2581653 
  173400       693600    9829.5115   -33630.591    274.77689 0.0037083429   -23801.079    377.90111    -4.459619  0.081220982  0.088214951   -4.4612309    130.59248    130.46541    5.0773533 
  173600       694400    9874.4642   -33789.743    276.03351  -0.06480052   -23915.279    491.57008    -9.537261   0.17912829   0.18865198   -9.5408083    130.51248    130.24028    4.5316963 
  173800       695200    9826.7463    -33777.94    274.69959 -0.014853715   -23951.194    526.55883   -6.4530193   0.12112665   0.12606151    -6.455387    130.43248    130.24844     3.797546 
  174000       696000    9906.2145    -33902.02    276.92106  0.052446076   -23995.805    569.56311   -6.5683838   0.11563624   0.12178789   -6.5705304    130.35248    130.16515    3.3185844 
  174200       696800    10012.055   -33782.067    279.87977  0.052568672   -23770.011    343.29962   -7.6457455   0.13833449   0.14980982   -7.6484641    130.27248    130.05435     2.759227 
  174400       697600    9916.0229   -33884.329    277.19525 -0.023012652   -23968.306    543.95437   -4.2060295  0.074508973  0.082451406   -4.2074974    130.19248    130.07266    2.3727322 
  174600       698400    9859.7152    -33620.21    275.62121 -0.068253092   -23760.495    336.82235    -2.111427  0.038180461  0.039113656   -2.1121344    130.11248    130.05253    2.0200757 
  174800       699200      9744.83   -33642.745    272.40968 -0.059396677   -23897.915    474.34788   -1.8215116  0.031338907  0.034818673   -1.8221139    130.03248    129.98082    1.7559526 
  175000       700000    9959.9537   -33705.898     278.4233  -0.10544941   -23745.945    320.89334   -2.3824222  0.042309776  0.045057709   -2.3832238    129.95248    129.88479    1.6352263 
  175200       700800    9805.1293     -33786.2     274.0953 -0.014379512   -23981.071    553.36932    -3.036832  0.055710423  0.057400796   -3.0378853    129.87248    129.78608    1.4192804 
  175400       701600    9825.3529   -33909.857    274.66064   0.10716033   -24084.504    654.46449    2.3814474 -0.043681133 -0.045104123     2.382275    129.79248    129.86094    1.3908027 
  175600       702400    9948.1311   -33744.362    278.09281   0.13862032   -23796.231    366.36657    2.1375667 -0.037823129 -0.039232325    2.1382612    129.71248    129.77397    1.6215295 
  175800       703200    9865.5366   -33777.072    275.78394  0.039062129   -23911.536    485.02343    1.9598604  -0.03428474 -0.037714883     1.960523    129.63248    129.68889    1.8355919 
  176000       704000    9918.0391   -33759.251    277.25161  -0.13918708   -23841.212    416.45497    7.6418654  -0.13577157  -0.14262708     7.644402    129.55248    129.77129    2.1566829 
  176200       704800    9667.6623   -33719.045    270.25251  0.048692073   -24051.383    627.17182    8.0306769  -0.14949756  -0.15255638    8.0335169    129.47248    129.70241    2.7387119 
  176400       705600    9695.1772   -33837.883    271.02167 -0.034584881   -24142.706       718.21    2.3248755 -0.044509046 -0.045184087    2.3257404    129.39248    129.45933    3.1855373 
  176600       706400    9906.1409   -33815.814      276.919  0.090939131   -23909.673    483.60405     7.827084   -0.1532345  -0.15025183    7.8300256    129.31248    129.53659    3.6219767 
  176800       707200    9766.5117   -33708.034    273.01577  0.083210298   -23941.522    515.13461    8.6983977   -0.1690127  -0.16625491    8.7016279    129.23248     129.4815    4.2364487 
  177000       708000    9895.3873   -33754.157     276.6184  0.042631352    -23858.77     434.2314   0.05144015 -0.00096655716 -0.0010284469  0.051459508    129.15248    129.15435    4.6294642 
  177200       708800    9720.9366   -33779.633    271.74175   0.04973085   -24058.696    635.40159    5.3587495  -0.10060633   -0.1044389    5.3607113    129.07248    129.22604    4.9606356 
  177400       709600    9940.4545   -33864.857    277.87822  0.027500806   -23924.403    501.56733    8.0496053  -0.16179512  -0.15722109    8.0527661    128.99248    129.22296    5.5721946 
  177600       710400    9675.0377   -33768.993    270.45868  0.011903768   -24093.955    670.77774  -0.52288145  0.010440939  0.010643764  -0.52309398    128.91248    128.89793    5.8056266 
  177800       711200    9821.4858   -33841.531    274.55253 -0.017517116   -24020.045    596.27335   -5.2008508   0.10052195   0.11264518   -5.2030417    128.83248    128.68422    5.6928715 
  178000       712000    9861.3585   -33891.941    275.66715 -0.059466374   -24030.583    605.94676   -2.2056734  0.041223637  0.043417955   -2.2064858    128.75248    128.68984    5.3136173 
  178200       712800    9803.0236   -33894.185    274.03644  0.034669662   -24091.161    665.39216   -3.1321099  0.060340381  0.060382231    -3.133273    128.67248    128.58336    5.0642208 
  178400       713600    9905.0578   -33958.832    276.88873  0.018552999   -24053.774    627.57401    -2.716567  0.051921368  0.051964938     -2.71756    128.59248    128.51523    4.8300032 
  178600       714400    9772.3389   -33697.444    273.17867  0.039272036   -23925.105    499.95794   -5.0773292  0.096842348   0.10225719   -5.0792821    128.51248    128.36776    4.6031669 
  178800       715200    9939.6131   -34041.409     277.8547  -0.12033107   -24101.796    678.00546   -5.7093182   0.10904425   0.11518122   -5.7115209    128.43248    128.26969    4.1660163 
  179000       716000    9764.6281   -33753.543    272.96312  -0.15766841   -23988.915    564.92423   -4.7923886  0.092365214   0.09251398   -4.7941713    128.35248     128.2159    3.6892079 
  179200       716800    9781.6726   -33643.556    273.43958 -0.065763111   -23861.883    436.91288   -2.9204916  0.055546174  0.058044679   -2.9215964    128.27248     128.1894    3.5168939 
  179400       717600    9866.7683   -33723.708    275.81837 -0.010233777    -23856.94    430.76629   -4.1137713  0.079945798  0.085141104   -4.1154289    128.19248    128.07529    3.2043853 
  179600       718400    9705.1159   -33907.877     271.2995  0.055025298   -24202.761    775.11673   -1.3784884  0.026938791  0.029270306   -1.3790622    128.11248    128.07348    2.9748767 
  179800       719200    9789.8826   -33874.361    273.66909  0.043111701   -24084.478    657.10581   0.55077832 -0.010680693 -0.011226823   0.55099626    128.03248    128.04862    2.9220512 
  180000       720000    9886.0926   -33671.186    276.35857 0.0019271678   -23785.094    360.91511    2.0905094  -0.03958639  -0.04408482    2.0913489    127.95248    128.01263    3.1328978 
  180200       720800    9707.0759   -33699.082    271.35429 -0.074350713   -23992.007    570.56217    2.1642264 -0.041078471 -0.046019163    2.1651053    127.87248    127.93474    3.2230068 
  180400       721600    9727.2744   -33696.133    271.91892 -0.013910368   -23968.859    546.22963    3.3816068 -0.064924347 -0.075369101    3.3830697    127.79248    127.88954    3.4265985 
  180600       722400    9898.2613    -33712.02    276.69874  0.030311688   -23813.759    388.67942    1.6020781 -0.029653589 -0.033877413    1.6027106    127.71248    127.75867    3.6185441 
  180800       723200    9796.0805   -33799.945    273.84235  0.047015096   -24003.864    576.27924    2.6795349 -0.048015279 -0.059405056    2.6806234    127.63248    127.70947    3.8063498 
  181000       724000    9844.5533   -33918.799    275.19737   0.16117732   -24074.246    646.94498    1.5485934 -0.028797281 -0.033736076    1.5492285    127.55248    127.59714    4.0032847 
  181200       724800    9909.1673   -33806.225    277.00361  0.011667833   -23897.058    471.82164   -1.1592538   0.02283992  0.023693906   -1.1597209    127.47248    127.43974    3.9659018 
  181400       725600    9901.2887   -33685.237    276.78337 -0.064491296   -23783.948      360.427  -0.52628348  0.010033363    0.0109756  -0.52649352    127.39248    127.37784    3.8874056 
  181600       726400    9714.0409    -33628.79    271.54899 -0.023662083   -23914.749     491.8993    -4.350732  0.082390948  0.085164422   -4.3523453    127.31248    127.18853     3.670712 
  181800       727200    9997.0992   -33783.982    279.46168  0.040969959   -23786.883    361.55646   -3.0372857  0.059590861  0.059719705   -3.0384572    127.23248    127.14606    3.3571168 
  182000       728000    9816.9524   -33959.322    274.42581    0.1280408    -24142.37    715.25031  -0.79470151  0.015898286  0.015732013  -0.79501619    127.15248    127.13016    3.1966852 
  182200       728800     9781.766   -33738.179    273.44219  0.031985603   -23956.413    528.15808    -3.242284  0.067086539  0.064575703   -3.2436208    127.07248     126.9802    3.1457984 
  182400       729600    9833.5655   -33743.781    274.89021  0.084820855   -23910.216    484.68841   -1.5393144  0.032424922  0.030066895   -1.5399494    126.99248    126.94888    2.9926559 
  182600       730400    9792.1292   -33712.968    273.73189  -0.12803163   -23920.839    498.77019   0.97484613 -0.020928002 -0.019336119   0.97526245    126.91248    126.94074    2.8591762 
  182800       731200    9825.9168   -33712.103     274.6764 -0.083463288   -23886.186    465.25622    1.5857126   -0.0333816 -0.033290692    1.5864132    126.83248     126.8782    2.9416377 
  183000       732000    9929.1075   -33560.504    277.56102    0.0701629   -23631.396    208.57639    1.9849586 -0.041238478 -0.042410557    1.9858399    126.75248    126.80962    3.1632654 
  183200       732800    9815.6656   -33725.921    274.38983  0.084561106   -23910.255    485.11237      2.31447 -0.047380018 -0.049616423    2.3154865    126.67248    126.73903    3.4134331 
  183400       733600    9829.7693    -33783.07    274.78409   0.11702992   -23953.301    529.37316    1.7565649 -0.033952454 -0.036773079    1.7572778    126.59248    126.64309     3.563357 
  183600       734400    9864.4748   -33791.243    275.75426  0.054975427   -23926.768    502.77421 -0.037368557 0.0007302496 0.00081252014 -0.037384522    126.51248    126.51181    3.6534465 
  183800       735200    9741.1026   -33609.025    272.30548  0.030008548   -23867.922    444.13283  -0.20537029 0.0039357654   0.00461203  -0.20545977    126.43248    126.42701    3.6484459 
  184000       736000    9810.3025   -33664.896    274.23991 -0.029096983   -23854.594    431.01338   0.69421323  -0.01295807 -0.015644576   0.69451038    126.35248    126.37272    3.7195262 
  184200       736800    9871.0991   -33800.028    275.93944 -0.027923049   -23928.929    503.56181    1.5090377 -0.030189882 -0.034235817    1.5097279    126.27248    126.31601    3.7521321 
  184400       737600    9858.1223   -33797.922    275.57668   0.01476612     -23939.8    513.06991    2.5554942 -0.051467638 -0.056299973    2.5566324    126.19248    126.26592    3.8130209 
  184600       738400    9777.7065   -33738.858    273.32871  0.071777056   -23961.152    534.90456     2.080472 -0.041844291  -0.04600824    2.0814013    126.11248    126.17235    4.0591606 
  184800       739200    9877.5126   -33850.573    276.11872 -0.052674083    -23973.06    549.38099    1.2485219  -0.02505401  -0.02744761    1.2490748    126.03248    126.06857    4.2236055 
  185000       740000    9799.1574   -33616.306    273.92836  -0.11540648   -23817.149    395.27033   -1.9051166  0.036430369  0.040938524   -1.9059046    125.95248    125.89842     4.194773 
  185200       740800    9846.2089   -33713.349    275.24365 -0.027681854    -23867.14    444.00648   -6.2886557   0.12544707   0.13932717   -6.2914497    125.87248    125.69312    3.8522302 
  185400       741600    9889.6598   -33760.392    276.45829  -0.05736448   -23870.732    447.26875   -6.4374265   0.13475919   0.14587787   -6.4404891    125.79248    125.60886    3.2794883 
  185600       742400    9786.7313    -33890.95      273.581 -0.098302588   -24104.218    679.94705   -5.0573916   0.10280937   0.11382857    -5.059717    125.71248    125.56831    2.7963086 
  185800       743200    9801.1619    -33791.17    273.98439  0.027189889   -23990.008    562.64256   -2.4723748  0.055097458    0.0552533   -2.4736058    125.63248     125.5622    2.4225119 
  186000       744000     9723.684    -33727.65    271.81855  0.068979716   -24003.966    575.77388   0.42607988 -0.009058376 -0.0098709981   0.42629046    125.55248    125.56506    2.3037552 
  186200       744800    9897.3361   -33818.377    276.67287  0.023160455   -23921.041    493.95007   -5.3275621   0.11352273    0.1204911   -5.3301335    125.47248    125.32059    2.1665906 
  186400       745600    9824.2658   -33796.229    274.63025  0.039139546   -23971.964    547.94429    -2.093927  0.046875846  0.047448279    -2.094989    125.39248    125.33302    1.8007775 
  186600       746400    9773.5847   -33736.976    273.21349 -0.027111415   -23963.391     538.4471   -4.8031728   0.10312682   0.10939483   -4.8055251    125.31248    125.17558    1.4948752 
  186800       747200    9918.3061   -33777.263    277.25908 -0.037204219   -23858.957    431.45389   -5.1034636   0.11318441   0.11660852   -5.1060502    125.23248    125.08699    1.0882943 
  187000       748000    9882.8565   -33871.007    276.26811  0.054892868    -23988.15    561.44322   -2.1435011  0.048219555  0.048206999   -2.1445852    125.15248     125.0916   0.76819649 
  187200       748800    9938.5896   -33787.701    277.82609  -0.04572558   -23849.112    422.96156    1.7266226 -0.038383878 -0.039240426     1.727495    125.07248    125.12224   0.77637142 
  187400       749600    9774.0179   -33861.252     273.2256  0.069752733   -24087.234    661.33178    1.3162037 -0.029117401 -0.029962204    1.3168666    124.99248     125.0305   0.88833936 
  187600       750400    9829.1072   -33816.539    274.76558  0.046826002   -23987.432    560.38261    2.1107205 -0.045880381 -0.047960621    2.1117638    124.91248    124.97321    1.0886469 
  187800       751200    9883.8836   -33911.579    276.29682 -0.049502261   -24027.695    601.10266    7.0882596  -0.15524743  -0.16123779    7.0917927    124.83248     125.0355    1.5160253 
  188000       752000    9841.1259   -33652.261    275.10156 -0.044789347   -23811.135    385.55387    8.2870686  -0.18890545   -0.1875954    8.2913439    124.75248    124.98977     2.140937 
  188200       752800    9815.2821   -33756.344    274.37911  0.030127729   -23941.062    515.72069    5.5072007   -0.1258894  -0.12399757    5.5100347    124.67248    124.83031    2.5379075 
  188400       753600    9765.3432   -33750.069    272.98311  0.011418439   -23984.726    559.41156    5.3920836  -0.12405751  -0.12418889    5.3949401    124.59248    124.74702    3.0304279 
  188600       754400    9827.1936   -33957.144    274.71209  0.096237078    -24129.95    701.87691    8.4166146  -0.19386911  -0.19306577    8.4210606    124.51248    124.75348    3.6689883 
  188800       755200    9839.5558   -33869.676    275.05767   0.11561818   -24030.121    603.49879    6.4693962  -0.14886742  -0.14636295    6.4727637    124.43248    124.61781    4.2318213 
  189000       756000    9865.1801   -33747.467    275.77398   0.05377201   -23882.287    457.96261    4.9504932  -0.10858343  -0.11284945    4.9529696    124.35248    124.49439     4.685273 
  189200       756800    9799.4026   -33756.387    273.93521  0.032943575   -23956.984    534.69396     3.863598 -0.081618856 -0.086760838    3.8654338    124.27248    124.38332    5.0508604 
  189400       757600    9956.7399   -33787.775    278.33346 -0.0055277263   -23831.035    408.54011    7.5625541  -0.17292811  -0.17328215    7.5665154    124.19248    124.40906    5.5248166 
  189600       758400    10003.241   -33690.334    279.63336 -0.019134092   -23687.093    265.96293    5.3501632  -0.11863419  -0.12597235    5.3529608    124.11248    124.26582    6.0296252 
  189800       759200    9870.8397   -33663.746    275.93219  0.021979173   -23792.907    371.99886    3.2402671  -0.06942655 -0.075954196    3.2419007    124.03248     124.1255    6.5062359 
  190000       760000    9886.4607   -33795.102    276.36886  0.041082406   -23908.641    485.89349   0.87189121 -0.018386824 -0.019940467   0.87231301    123.95248     123.9778    6.6228497 
  190200       760800    9789.6703   -33746.687    273.66315  0.045488385   -23957.017    534.96692   -0.5501937  0.011491021  0.012545441  -0.55045666    123.87248    123.85715    6.6366083 
  190400       761600    9819.6605   -33714.949    274.50151 -0.037502115   -23895.288    474.84819   -1.0807168  0.022716183  0.023968578   -1.0812212    123.79248    123.76199    6.5755179 
  190600       762400    9802.7028   -33721.093    274.02747  -0.11134526    -23918.39    496.99787    1.5285265 -0.032045467 -0.035877687    1.5292833    123.71248    123.75657    6.4519143 
  190800       763200    9908.6161   -33726.249     276.9882  0.022337762   -23817.633    395.80515  -0.40341314 0.0084518373 0.0092866947  -0.40360852    123.63248    123.62135    6.5759335 
  191000       764000    9806.6268   -33671.098    274.13716  0.075427141   -23864.471    442.02833   -2.5319499  0.052359082  0.058234535   -2.5331606    123.55248     123.4805    6.4106167 
  191200       764800    9861.2439   -33725.187    275.66394  0.013419729   -23863.943    441.79062   -8.5180556   0.17273167   0.19629956   -8.5220679    123.47248    123.22939    6.1106789 
  191400       765600    9784.5632   -33547.874    273.52039 -0.094602141   -23763.311    341.95456   -6.5124376   0.14046844   0.15291154   -6.5157469    123.39248    123.20671    5.4456442 
  191600       766400    9781.3478   -33563.322    273.43051 -0.062042575   -23781.974    360.19433   -3.6890473  0.077354206   0.08565858   -3.6908523    123.31248    123.20743    5.0197656 
  191800       767200    9871.3178   -33665.956    275.94555  0.035639066   -23794.638    370.48435   -8.7511368   0.19085101   0.20483021   -8.7556139    123.23248    122.98272    4.4968489 
  192000       768000    9817.5263   -33660.298    274.44185  0.060879672   -23842.771    417.42272   -6.2088931   0.13891342   0.15503077   -6.2123816    123.15248    122.97538    3.8612795 
  192200       768800    9806.3035   -33816.355    274.12812 -0.014584636   -24010.051    583.19508   -2.8655482  0.063259632  0.069285571   -2.8670836    123.07248    122.99096    3.5185654 
  192400       769600    9778.2565   -33739.457    273.34409   0.02236319   -23961.201    536.51855   -3.3626778  0.075683857  0.083532404   -3.3645665    122.99248    122.89675    3.2361661 
  192600       770400    9992.7325   -33733.942    279.33961  -0.12883713    -23741.21    316.87233   -6.1714319   0.13723543   0.15083874   -6.1748002    122.91248    122.73646    2.8758251 
  192800       771200    9952.5281   -33712.258    278.21573  0.039341624   -23759.729    333.74686   -8.9239445   0.20131997   0.21999553   -8.9289257    122.83248    122.57777     2.261848 
  193000       772000    9853.5983   -33756.138    275.45022   0.10248562    -23902.54    476.37159   -5.5031589   0.12878719   0.13014073   -5.5062038    122.75248    122.59556    1.7435786 
  193200       772800      9834.88   -33825.276    274.92696  -0.02160482   -23990.396    562.58653   -5.6229367   0.12928505   0.14107648   -5.6261918    122.67248    122.51213    1.2289696 
  193400       773600    9995.9243    -33843.06    279.42883 -0.023090473   -23847.136    419.93525   -5.5487534   0.12759512   0.13530332   -5.5518692    122.59248    122.43425   0.79721816 
  193600       774400    9908.8755   -33673.165    276.99545  -0.09549659   -23764.289    337.48721  -0.23351604  0.005374817 0.0056704412  -0.23364671    122.51248     122.5062   0.53833235 
  193800       775200    9766.2338   -33777.709      273.008  0.032857229   -24011.475    582.81545    3.5828075 -0.080910069 -0.082623488    3.5846733    122.43248     122.5353   0.72182337 
  194000       776000    9704.6988   -33690.923    271.28784  0.033882891   -23986.224    557.52789    5.1912142  -0.11714755  -0.11926617    5.1939053    122.35248    122.50128    1.0096066 
  194200       776800    9771.5611   -33828.525    273.15692 0.0013064428   -24056.964    630.69326    4.5700016  -0.10370816  -0.10843605    4.5724641    122.27248    122.40352    1.4550916 
  194400       777600    9875.3191   -33726.059     276.0574 -0.019840829   -23850.739    424.69642    3.2770029 -0.073297294 -0.081151009     3.278827    122.19248    122.28656     1.806356 
  194600       778400    10039.988   -33829.006    280.66061  -0.10081216   -23789.018    363.29796    4.4017685  -0.10316262  -0.10707086    4.4042789    122.11248    122.23871    2.0484959 
  194800       779200    9889.8803   -33809.343    276.46445  -0.10555727   -23919.463    492.59663    9.5672323  -0.22645655  -0.24687772    9.5730959    122.03248     122.3064    2.7030063 
  195000       780000    9782.4249   -33710.945    273.46061   0.01795489    -23928.52     501.9281    7.1855145  -0.16119573  -0.18342307    7.1896625    121.95248     122.1583    3.3810596 
  195200       780800    9929.1997   -33824.298     277.5636  0.042822607   -23895.098    467.72744    11.076688  -0.26440537  -0.27355396     11.08322    121.87248    122.18954     4.154467 
  195400       781600    9802.6594   -33635.732    274.02626  0.070123098   -23833.072    407.95876    8.9002968   -0.1910812  -0.22376089    8.9051594    121.79248    122.04731    4.9321294 
  195600       782400    9797.7847   -33701.381    273.88999  0.069989259   -23903.596    480.97936    5.2539625  -0.11424602   -0.1286543     5.256779    121.71248    121.86307    5.5937166 
  195800       783200    9758.2892    -33731.88    272.78592  -0.11743713   -23973.591     553.0265    3.6569635 -0.081071057  -0.08809438    3.6589226    121.63248    121.73742     5.947337 
  196000       784000     9906.303   -33650.379    276.92354 -0.060361137   -23744.076    322.59457  -0.73030258  0.014920568  0.017747583  -0.73067055    121.55248      121.532     6.049838 
  196200       784800    9825.0323   -33763.124    274.65167 -0.0010227739   -23938.092    514.28079   -0.7831119  0.016661116  0.019431219   -0.7835301    121.47248    121.45049    5.9590899 
  196400       785600    9964.7252   -33838.563    278.55669 0.0084789558   -23873.838    450.12981   -3.0318602  0.062494478  0.075911649   -3.0334542    121.39248    121.30621    5.9066769 
  196600       786400    9914.5113   -33790.061    277.15299   0.04653832    -23875.55    453.43471   -2.4347811  0.051376959  0.061478734    -2.436099    121.31248    121.24328    5.6664068 
  196800       787200    9850.5969    -33584.76    275.36631 -0.027395507   -23734.163    311.49632   -7.7167795    0.1611345   0.20259996   -7.7211202    121.23248    121.01227    5.2597577 
  197000       788000    9749.0794   -33755.212    272.52847 0.0071440389   -24006.132    583.37215   -1.3010137    0.0272842  0.035529328   -1.3017847    121.15248    121.11568    4.9506125 
  197200       788800      9910.19   -33794.136    277.03219    0.0790285   -23883.946    458.99943    3.7047117 -0.083698703  -0.10363976     3.707106    121.07248     121.1788     5.075451 
  197400       789600     9817.323   -33891.957    274.43616  0.040208095   -24074.634    648.94085  0.075422476  -0.00177072 -0.0020500176  0.075471107    120.99248    120.99503    5.1252406 
  197600       790400    9696.9618   -33911.826    271.07156 -0.039423429   -24214.864    788.68636    0.6014075 -0.013533709 -0.015823516   0.60176783    120.91248    120.93007    5.0588781 
  197800       791200    9813.2569    -33810.82     274.3225   0.12967779   -23997.563    572.06346    2.0707711  -0.04742547 -0.054264686    2.0720248    120.83248    120.89208    5.2254387 
  198000       792000    9793.6548   -33723.682    273.77454  0.073972829   -23930.027    506.85685    2.4595179 -0.059752515 -0.065375057    2.4611121    120.75248     120.8232    5.4340288 
  198200       792800    9797.8479   -33650.457    273.89175 -0.054731545   -23852.609    430.84974   -2.8780968  0.070468717  0.075279875   -2.8799434    120.67248    120.59059    5.3457049 
  198400       793600    9932.9905   -33766.683    277.66957  -0.06165083   -23833.692    411.25478   -4.7803072    0.1136474   0.12809617   -4.7833734    120.59248    120.45621     5.091256 
  198600       794400    9801.4814   -33778.359    273.99333 -0.018862596   -23976.878    551.95638   -7.3082279   0.17065392   0.18892823    -7.312661    120.51248    120.30394    4.7358224 
  198800       795200    9917.6814   -33844.427    277.24161  0.044164372   -23926.746    500.34202   -6.1936805    0.1447041   0.16635019   -6.1976035    120.43248     120.2558    4.2568985 
  199000       796000    9783.7884   -33801.271    273.49873 -0.087788082   -24017.482    592.53927   -3.3697832  0.082291161  0.090004399   -3.3719893    120.35248    120.25654    3.8665541 
  199200       796800     9832.436   -33646.787    274.85864  -0.01220342   -23814.351    388.51051    -8.541229   0.21608398    0.2254229   -8.5469352    120.27248    120.02868    3.4628876 
  199400       797600     9778.743   -33722.361    273.35769  0.018205741   -23943.618    514.74192    -10.17188   0.24789373   0.26855776   -10.178443    120.19248    119.90207    2.7583785 
  199600       798400    9795.4518   -33749.718    273.82477    0.1240608   -23954.266    524.84894     -9.10032    0.2218842   0.24930438   -9.1064378    120.11248    119.85269    1.9833777 
  199800       799200    9855.8063   -33836.227    275.51194  -0.02712989    -23980.42     551.5645   -11.787767    0.2908505   0.30752299   -11.795364    120.03248    119.69587    1.1143281 
  200000       800000    9769.4941   -33765.264    273.09914  -0.18716045    -23995.77    568.56945   -8.7630525   0.20953999   0.22463221   -8.7684352    119.95248    119.70235   0.28622024 
  200200       800800    9793.0021   -33798.691    273.75629  0.025106618   -24005.689     577.4163   -2.5400036   0.05858071  0.064690984   -2.5415025    119.87248    119.80026  -0.11181375 
  200400       801600     9783.452   -33745.102    273.48932  0.029437928    -23961.65    530.88711   0.97127775 -0.021321136 -0.025463094   0.97184537    119.79248    119.82065  -0.16492241 
  200600       802400    9756.6108   -33823.266      272.739  0.093856372   -24066.655    636.15939   0.72460828 -0.015635521 -0.019251031   0.72503257    119.71248    119.73359    -0.130175 
  200800       803200    9841.1451   -33674.052    275.10209  0.033284997   -23832.907    404.29334    1.3588429 -0.029739165 -0.035516344    1.3596322    119.63248    119.67172 -0.016304446 
  201000       804000    9759.5563   -33737.525    272.82134 -0.037256599   -23977.969    551.22116    3.8372922  -0.08538983  -0.10327031    3.8396312    119.55248    119.66258   0.19471799 
  201200       804800    9933.4509   -33785.709    277.68244  -0.13265973   -23852.258    424.52677    6.2316686  -0.14074098  -0.16771102    6.2355135    119.47248    119.65104   0.46019149 
  201400       805600    9826.0845   -33849.249    274.68109  0.014548687   -24023.164    594.02494    5.5162903  -0.12586151  -0.15105144    5.5197931    119.39248    119.55059    1.0319853 
  201600       806400    9825.9312   -33763.054     274.6768  0.099251945   -23937.123    506.39175    7.8452346  -0.17896529  -0.21209861    7.8501414    119.31248    119.53717    1.7120246 
  201800       807200    9871.4615   -33827.855    275.94957 -0.029453148   -23956.393    526.22065    8.7206848  -0.20240993  -0.23706474    8.7262543    119.23248     119.4822    2.3377024 
  202000       808000    9872.4769    -33889.44    275.97795  0.053698549   -24016.963    588.67371    7.4011275  -0.17096392   -0.1951471    7.4056735    119.15248    119.36447     2.865194 
  202200       808800    9918.1838   -33863.384    277.25565  0.044608608     -23945.2    520.65635    4.2086803 -0.094649048  -0.11043967    4.2111929    119.07248     119.1932    3.3249922 
  202400       809600    9727.8684   -33984.198    271.93553  -0.12994651    -24256.33    832.88538    2.8637881 -0.065176119 -0.074774128    2.8655055    118.99248    119.07475    3.6370053 
  202600       810400    9887.1544   -33638.908    276.38825  0.032351821   -23751.754    326.19867   -2.2208586  0.051736894  0.058209067   -2.2222236    118.91248    118.84939    3.6019874 
  202800       811200    9784.3204   -33876.523     273.5136 -0.0055878251   -24092.202    663.26387   -3.1029457  0.070013315  0.082653254   -3.1048358    118.83248    118.74417    3.3363488 
  203000       812000    9831.1966   -33770.516    274.82399  0.069810518   -23939.319    511.61226   -4.4936308  0.099857377   0.11763349   -4.4962792    118.75248    118.62441    3.0375278 
  203200       812800    9819.9433    -33812.21    274.50941  -0.04656337   -23992.267     566.9078   -4.3251496  0.099484771   0.11192789   -4.3277412    118.67248    118.54923    2.7249204 
  203400       813600    9938.9938    -33739.95    277.83738 -0.032273254   -23800.956    376.72183    -2.180125  0.051521368  0.056102969   -2.1814552    118.59248    118.53055    2.4381678 
  203600       814400    9914.1449   -33723.334    277.14275 -0.040581459   -23809.189    383.11334  -0.24288989  0.005476561 0.0062162758  -0.24303113    118.51248    118.50593     2.400941 
  203800       815200    9957.1167   -33771.546      278.344 -0.0044487202   -23814.429    385.28317    4.7376556  -0.10967999   -0.1182756    4.7404008    118.43248    118.56832    2.5724101 
  204000       816000    9767.9868   -33833.762    273.05701 -0.038595332   -24065.775    635.73854    1.9248126 -0.045333319 -0.050603123    1.9260112    118.35248    118.40791    2.8391309 
  204200       816800    9752.6641   -33921.336    272.62867 0.0036442123   -24168.672    739.65735    2.3000129 -0.054698787 -0.060547527    2.3014598    118.27248    118.33863    3.0382001 
  204400       817600    9847.4452   -33962.724    275.27821  0.029293067   -24115.279    688.33617   0.07988971 -0.0018060026 -0.0021553852  0.079939184    118.19248    118.19516    3.1180656 
  204600       818400    10013.935   -33954.395     279.9323 -0.048572994    -23940.46     514.7187    1.1402892 -0.027133327 -0.031786736    1.1410548    118.11248    118.14548     3.113941 
  204800       819200    9850.0787   -33889.275    275.35183 -0.061878381   -24039.196     613.1357    4.4441594  -0.10456214  -0.12366021    4.4471089    118.03248    118.15994    3.2565543 
  205000       820000     9857.619   -33853.791    275.56261    0.1008566   -23996.172    570.26317    5.4674471    -0.125301  -0.15291851    5.4710202    117.95248    118.10919    3.7111275 
  205200       820800    9949.9043   -33947.614    278.14238 -0.050354368    -23997.71    571.99412    4.0100094 -0.092818219  -0.11302881    4.0126757    117.87248    117.98753    4.1004798 
  205400       821600    9876.6683   -33670.545    276.09512   0.10509518   -23793.876    369.05744  -0.83241991  0.020573754  0.022372932  -0.83297463    117.79248    117.76908    4.2012653 
  205600       822400    9823.4658    -33568.18    274.60788 -0.065399461   -23744.714      320.251    -1.428276  0.035067484  0.039719905   -1.4292584    117.71248    117.67204    3.9960637 
  205800       823200    9797.3068    -33687.59    273.87663  0.028707305   -23890.283    467.32338    -4.584919   0.10796407    0.1255026   -4.5879069    117.63248    117.50179    3.8011088 
  206000       824000    9778.2101   -33729.912    273.34279 -0.058768376   -23951.702    526.96405   -4.0513621  0.091127042   0.10946039   -4.0538649    117.55248    117.43705    3.5635359 
  206200       824800    9924.3391   -33880.831    277.42772   0.15468375   -23956.492    529.22806   0.76363075 -0.017570056 -0.021167733    0.7641261    117.47248    117.49471    3.3455766 
  206400       825600    9845.2678    -33813.09    275.21734  0.037809321   -23967.822    540.01972   -3.6632581  0.087225606   0.10333446   -3.6657531    117.39248    117.28814    3.2254646 
  206600       826400    9784.7708   -33954.202    273.52619 -0.092866392   -24169.432    741.98489   -6.7372981   0.15383789   0.18303695   -6.7415395    117.31248    117.12026     2.811012 
  206800       827200    9786.8495    -33805.57     273.5843  0.015915343   -24018.721    592.49032   -4.2617017  0.097425126   0.12154014   -4.2645475    117.23248    117.11103    2.3474127 
  207000       828000    9867.2635   -33840.971    275.83221 -0.011779102   -23973.707    546.99194   -4.7159953   0.11009668   0.13793124   -4.7192963    117.15248    117.01804     1.950149 
  207200       828800    9767.5148   -33789.985    273.04381  0.024758948    -24022.47    593.47616   -6.3459913   0.14517821   0.18460498   -6.3503355    117.07248    116.89144    1.4400077 
  207400       829600     9876.423   -33886.073    276.08826  0.072286149    -24009.65    578.36331   -11.736746   0.25798548   0.34519831   -11.744655    116.99248    116.65732   0.74750181 
  207600       830400     9800.841   -33776.137    273.97542 0.0010874788   -23975.296     544.4947   -8.6817787   0.20086276    0.2452105   -8.6875633    116.91248    116.66466 -0.025508102 
  207800       831200    9900.1625   -33979.945    276.75188 -0.0050958571   -24079.782    649.62159   -6.9796995   0.16300071   0.19677553   -6.9843751    116.83248    116.63332   -0.7572656 
  208000       832000    9699.2149   -33674.702    271.13454 -0.0084838993   -23975.487    546.21757   -5.1245605   0.11485949   0.14743795   -5.1279676    116.75248    116.60636   -1.2593518 
  208200       832800     9837.944   -33776.188    275.01261   0.03004444   -23938.244    507.92586   -6.6750366   0.15254598   0.19444016   -6.6796101    116.67248    116.48203   -1.7032346 
  208400       833600    9762.9548   -33756.697    272.91634 -0.015407261   -23993.742    561.86979    -4.544367   0.10219117   0.12997752   -4.5473738    116.59248    116.46295   -2.1384722 
  208600       834400    9805.5088   -33677.116    274.10591  0.020818204   -23871.607     439.7224   -1.8911258  0.040252089  0.054113533    -1.892328    116.51248    116.45881      -2.3536 
  208800       835200    9842.0697   -33856.126    275.12794  0.018344957   -24014.056    581.39342   -7.2365795   0.16258002   0.20577496   -7.2413299    116.43248    116.22598   -2.7522429 
  209000       836000    9829.6016   -33843.736     274.7794 -0.013102725   -24014.134    580.48934   -7.7163765    0.1776476    0.2293794   -7.7218288    116.35248    116.13225   -3.3171684 
  209200       836800    9898.8733   -33672.396    276.71585 0.0046600431   -23773.523      339.217   -8.8455817   0.21263308   0.24116823   -8.8514231    116.27248    116.01998   -3.9258881 
  209400       837600    9828.2899   -33723.477    274.74274  0.026987998   -23895.187    458.06883    -10.57392   0.24478242   0.28846321   -10.580685    116.19248    115.89057   -4.6637164 
  209600       838400    9732.3438   -33799.792    272.06063  0.021032193   -24067.448    630.32839   -6.3771522   0.15315414   0.16987318   -6.3812525    116.11248    115.93056    -5.388416 
  209800       839200     9873.383   -33910.809    276.00328  0.081185313   -24037.426    598.52917   -4.2490828   0.10484413   0.11638098   -4.2519691    116.03248    115.91139   -5.7293682 
  210000       840000     9819.063   -33777.926    274.48481  0.037623903   -23958.863    521.79475    -1.681974  0.041575422   0.04347867   -1.6830495    115.95248    115.90479   -5.9571276 
  210200       840800     9815.753   -33771.374    274.39228 -0.060525932   -23955.621    520.77009  -0.92438864  0.022025475  0.024246924  -0.92496886    115.87248    115.84645   -6.1023387 
  210400       841600    9958.3699   -33680.573    278.37903 -0.050586867   -23722.203    286.49053   -2.9074388  0.072288915   0.07698247    -2.909356    115.79248    115.70975    -6.284468 
  210600       842400    9870.2104   -33887.182    275.91459 -0.043098512   -24016.971     578.3572  -0.29277662 0.0074290386 0.0079610055  -0.29297904    115.71248    115.70451   -6.3905631 
  210800       843200    9873.3307   -33862.213    276.00182  0.071176455   -23988.882    546.80378   -4.9255725    0.1279993   0.13530044   -4.9290926    115.63248    115.49205    -6.586726 
  211000       844000    9699.3738   -33825.563    271.13898   0.11776805   -24126.189    685.62446   -1.5738221  0.039535995  0.041526469   -1.5748662    115.55248    115.50788   -6.8737014 
  211200       844800    9828.3076   -33948.565    274.74323 -0.088056033   -24120.258    682.93817   -1.5057297  0.038245167  0.039097141   -1.5067226    115.47248    115.42983    -6.971294 
  211400       845600    9820.7444   -33557.796    274.53181 -0.053728533   -23737.052    300.33116   -6.6007249   0.17667531   0.17321387   -6.6053604    115.39248    115.20415   -7.2579539 
  211600       846400    9997.6618   -33636.108    279.47741 -0.025575057   -23638.446    200.15697   -8.7406616   0.22294129    0.2307375   -8.7465483    115.31248    115.06298   -7.9415976 
  211800       847200    9886.6758   -33851.996    276.37487 -0.035226373   -23965.321    524.16763    -8.500754   0.21704094   0.21683797   -8.5062885    115.23248    114.98984   -8.5521387 
  212000       848000    9865.7818    -33850.28     275.7908 -0.062618575   -23984.499    539.27343   -11.426052   0.29335888   0.29027461   -11.433502    115.15248    114.82621   -9.3648421 
  212200       848800    9848.1402   -33934.978    275.29764  -0.10050124   -24086.838    639.05892   -13.698645   0.35939768   0.34332673   -13.707659    115.07248    114.68123   -10.470162 
  212400       849600    9772.8506   -33634.975    273.19297 -0.089206057   -23862.125    413.40413   -17.385446   0.45799403   0.44840639   -17.397257    114.99248    114.49581   -11.719296 
  212600       850400    9872.2601   -33942.792    275.97189 -0.068050899   -24070.532    622.19748   -17.384683   0.46179248   0.43560858    -17.39627    114.91248    114.41584   -13.086057 
  212800       851200    9807.8215   -33610.577    274.17056 -0.075248948   -23802.756    354.66549   -15.335891   0.39973913    0.3839918   -15.345905    114.83248    114.39442   -14.367822 
  213000       852000     9910.515   -33967.882    277.04128 -0.089408071   -24057.367    606.69733   -13.913323   0.37016445    0.3405137   -13.922411    114.75248    114.35509   -15.545571 
  213200       852800     9782.942   -33813.504    273.47507  0.030170058   -24030.562    578.41292   -9.9800811   0.27227521   0.24110929   -9.9867055    114.67248    114.38754   -16.570897 
  213400       853600    9812.3228   -33892.733    274.29639 -0.0090770514    -24080.41    627.56369   -10.241021   0.28727717   0.24075111   -10.247878    114.59248    114.30008   -17.380657 
  213600       854400    9908.2283   -33747.534    276.97736  0.012553328   -23839.306    386.27662   -12.641501   0.36205106   0.29518139   -12.650129    114.51248    114.15145   -18.267181 
  213800       855200    9896.6351   -33805.183    276.65328 -0.014944438   -23908.548     456.4302     -7.58951    0.2306657   0.16972857   -7.5949112    114.43248    114.21588   -19.018957 
  214000       856000    9823.9789   -33890.064    274.62223 -0.013045115   -24066.085    612.67052   -6.3515038   0.19524895    0.1412875   -6.3560747    114.35248    114.17128    -19.58545 
  214200       856800    9762.1332   -33891.865    272.89337  0.095472296   -24129.732    673.28814    -6.751546   0.20779422   0.15313731   -6.7564786    114.27248    114.07984   -20.214237 
  214400       857600    9805.6586   -33924.616     274.1101  0.050267722   -24118.958    662.55453   -6.4020605    0.1947977   0.14308908   -6.4066215    114.19248    114.00983    -20.71619 
  214600       858400    9782.7754   -33848.934    273.47041  0.020613354   -24066.158    611.63033   -5.6296095   0.17305685   0.12901019   -5.6337461    114.11248    113.95191   -21.316379 
  214800       859200    9910.5819   -33857.323    277.04315   0.03725107   -23946.741    493.04059   -5.4983104   0.17276119   0.13092719   -5.5025817    114.03248    113.87566   -21.667349 
  215000       860000    9874.6913   -33931.448    276.03986   0.02446207   -24056.757    601.23665   -5.6490512   0.17688883   0.13579346   -5.6534511    113.95248    113.79135   -22.182182 
  215200       860800    9878.3617   -33861.575    276.14246 -0.094109287   -23983.214    526.50371   -5.8130322   0.18496665   0.13661708   -5.8175785    113.87248    113.70666   -22.651539 
  215400       861600    9878.4016   -33981.688    276.14357   0.02720043   -24103.287    645.17758   -4.4405782   0.14275732     0.101118   -4.4440229    113.79248    113.66591   -23.077874 
  215600       862400    9885.8361   -33937.948     276.3514  0.032639503   -24052.112    589.37363   -12.279998   0.39087568   0.27541256   -12.289303    113.71248    113.36176   -23.735699 
  215800       863200    9752.1097   -34050.129    272.61318  0.099383509    -24298.02    834.48906   -9.6631759   0.31568961   0.22424396   -9.6709314    113.63248    113.35657    -24.63295 
  216000       864000    9734.3325    -33974.24    272.11623  0.034537329   -24239.907    777.44632   -11.420721   0.39021009   0.24380828   -11.429985    113.55248    113.22631   -25.456625 
  216200       864800    9774.8317   -34010.554    273.24835 -0.013825442   -24235.723    770.60754   -17.720935   0.61472576   0.38902926   -17.735861    113.47248    112.96614   -26.582725 
  216400       865600    9899.8795   -33951.496    276.74397 -0.080551368   -24051.617    586.13149    -14.71648   0.49803451   0.32773951   -14.728551    113.39248    112.97206   -27.832451 
  216600       866400    9773.1267   -34044.425    273.20069 0.0036545322   -24271.298    796.43412   -22.440043   0.77512649   0.48460314   -22.458656    113.31248     112.6712   -29.341352 
  216800       867200    9877.9354   -34026.047    276.13054  0.076310443   -24148.112    670.13836   -20.467376   0.73213444   0.43212086   -20.485025    113.23248    112.64759    -31.01369 
  217000       868000    9728.9121   -33956.772     271.9647  0.022876813   -24227.859    751.95569   -17.281538   0.60243851   0.37672837   -17.296139    113.15248     112.6587   -32.477296 
  217200       868800    9660.1947   -33920.777    270.04376 -0.059343109   -24260.582    786.47644   -18.076064   0.64643998   0.38576465   -18.091732    113.07248    112.55597   -34.043545 
  217400       869600     9888.197   -33995.536     276.4174 -0.077377864   -24107.339    634.86852   -13.695793   0.50348164   0.27127493   -13.707729    112.99248    112.60123   -35.289009 
  217600       870400    9867.7733   -33947.241    275.84647  0.075320963   -24079.468    607.28779    -6.726901   0.25108056   0.13367774   -6.7329124    112.91248    112.72051   -36.064822 
  217800       871200    9949.7002   -33957.033    278.13667  -0.10996149   -24007.332    532.09894   -9.0662497   0.34476791   0.17290775   -9.0744502    112.83248    112.57361   -36.641503 
  218000       872000    9762.4169   -34039.305     272.9013 -0.047654159   -24276.889    799.67723   -10.431499   0.39255768   0.20254293   -10.440847    112.75248    112.45457   -37.527401 
  218200       872800    9885.9994   -34015.419    276.35596 -0.031490847    -24129.42    650.17755   -13.329683   0.50071551   0.26177924   -13.341652    112.67248    112.29169   -38.464977 
  218400       873600    9942.4092   -34073.679    277.93286  -0.04899173    -24131.27    652.97013   -11.409244    0.4171719   0.24017606   -11.419394    112.59248    112.26661   -39.403735 
  218600       874400    9780.7912   -34012.622    273.41495  -0.09085025   -24231.831    753.81053   -9.4664721   0.33656358   0.19745314   -9.4745109    112.51248    112.24218   -40.271693 
  218800       875200    9912.7801   -33842.044     277.1046 -0.017716044   -23929.264    451.80879   -5.8777037   0.21053585   0.11305529   -5.8825596    112.43248     112.2648   -40.961154 
  219000       876000    9886.8019   -34027.012     276.3784  0.012446942    -24140.21    661.56782   -8.0125328     0.287512   0.15840196   -8.0192541    112.35248    112.12376   -41.454042 
  219200       876800    9918.4001   -34006.679     277.2617  0.042490905   -24088.279    608.54497   -3.2568141   0.11721332  0.064103308   -3.2595531    112.27248    112.17975    -41.79469 
  219400       877600    9828.6257   -33847.805    274.75213  0.053616603    -24019.18    537.52698   -1.3684378  0.050071206  0.026691193   -1.3696137    112.19248    112.15375   -42.036058 
  219600       878400    9841.4244   -33932.805     275.1099  0.014492942   -24091.381    611.06879   -1.0441715  0.037867281  0.019454275    -1.045039    112.11248    112.08302   -42.139353 
  219800       879200    9936.4276   -33790.783    277.76565 -0.071852639   -23854.355    378.29048   -3.3194349   0.12695391  0.066102996   -3.3225194    112.03248    111.93795   -42.363601 
  220000       880000    9768.1874   -33849.448    273.06261  -0.12604585    -24081.26    605.77735   -4.3821655    0.1675018  0.083864906   -4.3861674    111.95248    111.82756   -42.642929 
  220200       880800    9801.0529    -33928.75    273.98135 -0.0076794104   -24127.697    647.50059   -1.3242909  0.050298736  0.023963598   -1.3254624    111.87248    111.83501   -42.946036 
  220400       881600    9954.1768   -34081.553    278.26181  0.027952105   -24127.376    642.28271   -1.3701392  0.052085696  0.025662228   -1.3713689    111.79248     111.7537   -43.085191 
  220600       882400    9845.2798   -34073.587    275.21768   0.14415295   -24228.307    742.72335     -4.51254   0.17494596  0.079578627   -4.5166311    111.71248    111.58383   -43.291816 
  220800       883200    9766.9248    -34047.34    273.02732 -0.058158615   -24280.415    799.45289   -2.8251981   0.11016677  0.046634674   -2.8277298    111.63248    111.55209   -43.601569 
  221000       884000    9982.2739   -33948.745    279.04725  -0.13970308   -23966.471    489.71919   -3.4117609   0.13317013   0.05624286   -3.4148221    111.55248    111.45531   -43.915983 
  221200       884800    9875.6076   -33865.799    276.06547  -0.12603485   -23990.191    511.16184   -6.1203221   0.24352618  0.097939261   -6.1259481    111.47248    111.29785   -44.211013 
  221400       885600    9871.8285   -33941.069    275.95983   0.12507861   -24069.241    586.28429   -5.7517496    0.2266219   0.09237092   -5.7569534    111.39248    111.22839   -44.590366 
  221600       886400    9943.6802   -34087.259    277.96839  0.044755585   -24143.579    656.47023   -11.034215   0.42327089    0.1804097   -11.043804    111.31248    110.99734   -45.347649 
  221800       887200    9609.9719    -34031.01    268.63982 -0.0031155805   -24421.038    933.89531   -9.2491424   0.35760683   0.16790669   -9.2575759    111.23248    110.96838   -46.187227 
  222000       888000    9888.4148   -34023.657    276.42349  -0.13349692   -24135.242    647.27394   -14.842292   0.57846134   0.27353858   -14.856078    111.15248    110.72842   -47.015091 
  222200       888800    9701.8029   -33837.985    271.20688 -0.090484291   -24136.182    649.61221   -13.125701   0.50211997   0.24409363   -13.137569    111.07248    110.69752   -48.206207 
  222400       889600    10037.892   -33841.431    280.60202 -0.0057580985   -23803.538    314.76692   -12.387431   0.47364913   0.23095927   -12.398635    110.99248    110.63863   -49.216412 
  222600       890400    9862.4267   -33979.986    275.69701  0.032271241   -24117.559    627.45284   -11.340617   0.43026191   0.21648823   -11.350841    110.91248    110.58857   -50.072599 
  222800       891200    9923.1117   -33983.855    277.39341  0.071345122   -24060.743    567.14927   -15.660568   0.58338352   0.32604603   -15.674822    110.83248    110.38503   -51.128733 
  223000       892000    9781.5045   -34071.135    273.43488  0.021876231   -24289.631    795.04501   -14.304544   0.53349996   0.29580207   -14.317545    110.75248    110.34381   -52.395688 
  223200       892800    9788.1224   -34147.309    273.61988  0.071238244   -24359.187    863.67975   -14.328997   0.54919133   0.27660279   -14.342185    110.67248     110.2631   -53.489527 
  223400       893600    9805.1133   -34128.085    274.09485  0.013837635   -24322.971    824.25633   -17.519797   0.67638063   0.34318764   -17.536207    110.59248    110.09184   -54.728818 
  223600       894400    9939.1392   -34151.185    277.84145 -0.010807553   -24212.046    715.27582   -10.203646   0.39314598     0.192358   -10.213028    110.51248    110.22108   -55.892482 
  223800       895200    9754.5032   -34047.366    272.68008  0.038673336   -24292.863    794.71177   -10.124644   0.38243384    0.1880099   -10.133609    110.43248    110.14335   -56.733028 
  224000       896000    9736.0577   -34137.711    272.16445 -0.0055731739   -24401.653    903.14085   -9.6389086   0.35441922   0.17802156   -9.6470651    110.35248    110.07725   -57.473232 
  224200       896800     9893.966   -33970.634    276.57867 -0.082563638   -24076.668    580.13897   -7.0365191   0.25679845   0.13560697   -7.0425092    110.27248    110.07166   -58.132235 
  224400       897600    9734.5523   -34116.176    272.12237  -0.20942301   -24381.623    883.73158   -6.9189891     0.247618   0.12995865   -6.9246382    110.19248    109.99503   -58.720303 
  224600       898400    9872.7881   -34160.153    275.98665 -0.019486026   -24287.365    784.74863   -9.3089393   0.33011394   0.16767196   -9.3162997    110.11248     109.8467   -59.429432 
  224800       899200    9750.8565   -34341.595    272.57814  0.039037979   -24590.738    1083.7055   -11.454151   0.41535418   0.21756356   -11.463744    110.03248    109.70534   -60.316392 
  225000       900000    9965.2829   -34162.234    278.57228 -0.040098265   -24196.951    689.11203    -15.77653    0.5774052    0.2894786   -15.789746    109.95248    109.50174    -61.43771 
  225200       900800    9789.3004    -34204.93    273.65281 -0.069535878    -24415.63     912.3234   -9.6354048   0.33962446   0.17124658   -9.6429091    109.87248    109.59737   -62.475443 
  225400       901600    9854.2543   -34188.799    275.46855  -0.10598053   -24334.545    830.90694   -9.0264487   0.33333208   0.16627363   -9.0341315    109.79248    109.53476   -63.270504 
  225600       902400    9706.4401     -34206.7    271.33651  0.091419457    -24500.26    994.10484    -4.165607   0.15146062  0.078357243    -4.169096    109.71248    109.59376    -63.73267 
  225800       903200    9967.5685   -34208.079    278.63617 0.0089006068   -24240.511    733.20743   -7.4623423   0.26970764   0.14027837   -7.4685321    109.63248    109.41949   -64.185656 
  226000       904000    9686.5692   -34056.939    270.78104 -0.0091530185    -24370.37    863.59698   -2.0330027  0.072845533   0.03998005   -2.0347002    109.55248    109.49474   -64.529677 
  226200       904800    9874.8385   -34061.952    276.04397 -0.080547939   -24187.113    683.80314   -2.6934053  0.097813602  0.051608688   -2.6956749    109.47248    109.39586   -64.675127 
  226400       905600     9926.206   -34009.896    277.47991  -0.14770907    -24083.69    580.96474   -6.8211326   0.24813327   0.13124373    -6.826906    109.39248    109.19782   -65.058398 
  226600       906400    9864.9692   -34003.717    275.76808 -0.052750744   -24138.748    634.08703   -3.8131111   0.13573226   0.07557131   -3.8162744    109.31248    109.20384   -65.569515 
  226800       907200    9915.0871   -34088.826    277.16909 0.0087824467   -24173.739    665.72074   -4.9186723   0.17731125  0.098178696   -4.9228463    109.23248    109.09223   -65.872478 
  227000       908000    9866.9647    -34217.02    275.82386  0.058744132   -24350.056    839.27139   -8.5472642   0.29440584   0.17787845   -8.5541826    109.15248    108.90847   -66.349037 
  227200       908800    9792.1797   -34215.367     273.7333 0.0037340557   -24423.187    911.89857   -10.818061   0.37184273   0.21935969   -10.826673    109.07248    108.76354   -67.128282 
  227400       909600    9836.0875   -34037.169    274.96071  0.095313808   -24201.082     691.0236   -6.5706951   0.22702366   0.13270264    -6.575955    108.99248    108.80499   -67.740997 
  227600       910400    9868.6667   -34103.834    275.87144 -0.081613674   -24235.167    729.19604   -5.5317493   0.18984108   0.11001909   -5.5360991    108.91248     108.7547   -68.212794 
  227800       911200    9749.0614   -34068.575    272.52796  -0.17853207   -24319.513    815.55169   -2.6142559  0.090462127  0.052087527   -2.6163391    108.83248    108.75813   -68.618935 
  228000       912000    9836.0471   -34017.578    274.95958 -0.070702622   -24181.531      674.962  -0.61091625  0.020904855   0.01159646   -0.6113838    108.75248    108.73541   -68.694858 
  228200       912800    9806.1687   -34246.833    274.12436  0.027830409   -24440.665    928.90013   -2.8118831   0.10204533  0.054399691     -2.81426    108.67248    108.59247   -68.861812 
  228400       913600    9891.3645   -34302.685    276.50594   0.15630799   -24411.321    897.72132   -1.4583432  0.053730353  0.028412443   -1.4596092    108.59248    108.55117   -68.949722 
  228600       914400    9898.3941   -34136.974    276.70245  0.031544549    -24238.58    726.75283   -4.8020028   0.17335377  0.092556518   -4.8060222    108.51248    108.37556   -69.175529 
  228800       915200    9722.2133   -33944.486    271.77744 -0.031132515   -24222.273    713.13629   -5.3846343   0.19071867   0.11000741   -5.3891337    108.43248     108.2789   -69.650249 
  229000       916000      9780.39   -34052.781    273.40373  -0.12723415   -24272.391    763.87222   -6.1295942    0.2122059   0.12425304   -6.1345249    108.35248    108.17761   -70.082221 
  229200       916800    9884.5187   -34189.535    276.31457 -0.024023814   -24305.016    792.74941    -6.911992   0.24684795   0.12833453    -6.917589    108.27248    108.07523   -70.622656 
  229400       917600    9783.0416   -34247.554    273.47785   0.12274156   -24464.512    947.31299   -10.661768   0.37869311   0.19483243    -10.67027    108.19248    107.88801   -71.288068 
  229600       918400    9966.9714   -34417.962    278.61948  0.050552561    -24450.99    932.55693   -13.722926   0.46009772   0.25003001   -13.732914    108.11248    107.72051   -72.154013 
  229800       919200    9804.1404   -34244.772    274.06765  -0.12089457   -24440.631    922.17035   -16.165073   0.53578566   0.29214773   -16.176588    108.03248    107.57069   -73.352058 
  230000       920000    9962.7745   -34181.747    278.50216 -0.036749962   -24218.972    700.50588   -13.140414   0.44025057    0.2242205   -13.149699    107.95248    107.57717   -74.560658 
  230200       920800    9812.2977   -34144.967    274.29569   0.08623876    -24332.67    808.68467    -16.47584   0.53353276   0.27609775   -16.486789    107.87248    107.40183   -75.782224 
  230400       921600    9829.6176    -34221.55    274.77985  0.074394217   -24391.932    867.51691   -17.850745   0.57551931   0.28985534   -17.862372    107.79248    107.28252   -77.132112 
  230600       922400    9861.6996   -34197.858    275.67668  -0.11356993   -24336.158    813.79245   -17.335679   0.56940394   0.28864556   -17.347429    107.71248    107.21724   -78.545354 
  230800       923200    9871.8268   -34125.521    275.95978 -0.044688728   -24253.694    734.27731   -9.1505017    0.3005927   0.14945945   -9.1566575    107.63248    107.37126      -79.656 
  231000       924000    9785.9891   -34134.972    273.56025  -0.14079861   -24348.983    827.36784   -11.153287   0.37216188   0.17386274   -11.160849    107.55248      107.234   -80.471323 
  231200       924800    9817.8629   -34230.612    274.45126 -0.073575192   -24412.749    886.80839   -9.5504205   0.31603361   0.14667862   -9.5567737    107.47248    107.19983   -81.299423 
  231400       925600    9920.5788    -34314.33    277.32261   0.01069195   -24393.752    865.00836   -10.409618   0.34109316   0.14780061   -10.416254    107.39248    107.09527    -81.96741 
  231600       926400    9862.8802   -34346.395    275.70968 -0.014660415   -24483.515    952.40743   -10.667015   0.35048119   0.17040457   -10.674132    107.31248     107.0079   -82.818273 
  231800       927200    9990.7644   -34269.676     279.2846  0.041948962   -24278.911     748.2764   -9.9213874   0.33191752   0.16538014   -9.9283155    107.23248    106.94921   -83.624481 
  232000       928000    9891.4943   -34187.668    276.50957  0.024295352   -24296.174    766.85689   -9.7178794   0.32447818   0.16745062   -9.7247368    107.15248    106.87503    -84.44612 
  232200       928800    9763.4857   -34222.988    272.93118  -0.10222012   -24459.502    928.23661   -10.993254   0.36110379   0.18229489   -11.000694    107.07248    106.75857   -85.207594 
  232400       929600    9827.3463    -34190.71    274.71636   0.08172958   -24363.364     831.8039   -8.4952606   0.27552879   0.15387223   -8.5011202    106.99248    106.74999   -85.975709 
  232600       930400    9899.2081   -34253.909     276.7252 -0.063815456   -24354.701    821.72578   -8.1518588    0.2642242   0.14515965   -8.1574314    106.91248    106.67981   -86.661852 
  232800       931200    9799.0412   -34189.595    273.92511  0.019067819   -24390.554    857.82678   -6.0304617   0.20599802   0.11217535   -6.0350217    106.83248    106.66045   -87.239317 
  233000       932000    9758.0416   -34111.607      272.779 -0.0023885626   -24353.565    821.37424   -5.7631767   0.20124785   0.11037466   -5.7677456    106.75248    106.58809   -87.696153 
  233200       932800     9749.257   -34059.056    272.53343 -0.022893546   -24309.799    775.97733   -8.7310887   0.30498551   0.17314297   -8.7381293    106.67248    106.42322   -88.353986 
  233400       933600    9869.0412   -34071.885    275.88191  -0.15161357   -24202.844      669.333   -9.6261452    0.3258878    0.1953771   -9.6336414    106.59248    106.31763   -89.050899 
  233600       934400    9764.3422   -34269.759    272.95513  -0.10830049   -24505.417    971.82155   -6.0249979   0.20707896   0.11625137   -6.0296762    106.51248     106.3406   -89.774957 
  233800       935200    9937.9525   -34187.442    277.80828 -0.074877559   -24249.489     714.7595     -1.19361  0.039435391   0.02260922   -1.1944753    106.43248    106.39875   -90.133503 
  234000       936000    9764.5275   -34320.307    272.96031  -0.12086435   -24555.779    1020.3649  -0.14509449 0.0046720734 0.0026687711  -0.14519422    106.35248    106.34873   -90.051384 
  234200       936800    9822.9617   -34199.964    274.59379  0.018357104   -24377.002    841.25231    3.6684054  -0.11357085 -0.066983467    3.6707742    106.27248    106.37776   -89.916304 
  234400       937600    9810.7138   -34402.898    274.25141 -0.012287835   -24592.184    1054.7145    2.0559222 -0.066326122 -0.037349443    2.0573308    106.19248    106.25166   -89.698329 
  234600       938400    9732.7906   -34363.439    272.07312   0.11862566   -24630.649    1093.2792    2.1293931 -0.067867932 -0.036330828    2.1307841    106.11248    106.17376   -89.579348 
  234800       939200    9776.3945   -34299.049    273.29204   0.03960527   -24522.654    986.22876    -4.169316   0.12516848  0.072734633   -4.1718285    106.03248    105.91368   -89.694602 
  235000       940000     9737.928   -34141.586    272.21673  -0.18822389   -24403.658    868.32123   -6.4221966   0.19507211   0.10826545   -6.4260706    105.95248    105.76928   -89.969446 
  235200       940800    10012.481   -34180.623    279.89166 -0.096888619   -24168.142    632.17962   -9.4137338   0.27222001   0.16332914   -9.4190851    105.87248    105.60376   -90.640347 
  235400       941600    9861.0492   -34319.672     275.6585 -0.046841041   -24458.623    918.63742   -11.206048   0.32022102   0.19202444   -11.212267    105.79248    105.47253   -91.427765 
  235600       942400    9876.4515   -34270.366    276.08906  0.093054438   -24393.915    850.50185   -12.796546   0.40120686   0.22481426   -12.804808    105.71248    105.34703   -92.442142 
  235800       943200    9785.4492   -34378.466    273.54516  0.052174798   -24593.017    1048.6105   -9.7198146   0.30307578   0.16689608   -9.7259707    105.63248    105.35499   -93.281014 
  236000       944000    9848.5621   -34349.088    275.30943  -0.10441383   -24500.526    956.36795   -9.7975125   0.30438993   0.17764485   -9.8038493    105.55248    105.27277   -94.197635 
  236200       944800    9742.0201   -34164.577    272.33113   0.03213849   -24422.557    879.86383   -5.5818038   0.17612079   0.10424501   -5.5855545    105.47248    105.31329   -94.818532 
  236400       945600    10059.531   -34293.161    281.20692 -0.055008203    -24233.63    691.28722   -6.1183303   0.18662314   0.11455893   -6.1222478    105.39248    105.21796   -95.257847 
  236600       946400    9906.2111    -34240.24    276.92097 0.00019407094   -24334.029    791.06303   -5.1621485   0.16111517  0.093926258   -5.1655162    105.31248    105.16529    -95.72179 
  236800       947200    9756.2949   -34295.402    272.73017  0.057260433   -24539.107    994.53645   -3.5329251   0.10612523  0.061486034   -3.5350535    105.23248    105.13188   -96.135996 
  237000       948000    9810.9595   -34300.283    274.25828  0.072846288   -24489.324    943.75865   -5.5521681   0.17255608  0.098739006   -5.5557264    105.15248    104.99414    -96.50619 
  237200       948800    9942.8293   -34316.788     277.9446  -0.04076315   -24373.959    829.33665   -7.8219815   0.23794271   0.14158595   -7.8268804    105.07248    104.84925   -96.940706 
  237400       949600    9774.7894   -34247.809    273.24717 -0.023697729   -24473.019    930.38164   -2.5549985  0.081123592  0.043312853   -2.5566529    104.99248    104.91983   -97.363226 
  237600       950400    9805.2197   -34304.265    274.09783 -0.010431936   -24499.045    955.63869   -5.9248806    0.1909874   0.10262299   -5.9288462    104.91248    104.74348   -97.807594 
  237800       951200    9801.6253   -34430.595    273.99735 -0.011707142    -24628.97    1082.9418   -7.1521564   0.21700262   0.12362368   -7.1565155    104.83248    104.62841   -98.419262 
  238000       952000    9811.4841   -34293.816    274.27294   0.11063882   -24482.331    934.12302    -5.186627   0.15588344  0.091433892   -5.1897745    104.75248     104.6046   -98.819477 
  238200       952800    9712.2764   -34359.059    271.49966  0.056718695   -24646.783    1097.6641   -5.7513896   0.17504177  0.097354032   -5.7548762    104.67248    104.50845   -99.175901 
  238400       953600    9871.1218   -34351.886    275.94007 -0.085181653   -24480.764    931.66402   -4.5549625   0.13868686  0.079879872   -4.5577733    104.59248    104.46266   -99.649405 
  238600       954400    9805.3094   -34364.128    274.10034 -0.093432863   -24558.818    1010.5123  -0.14971857 0.0045422385 0.0023410079  -0.14980575    104.51248     104.5086   -99.863828 
  238800       955200    9839.7649   -34417.074    275.06351  0.017663849   -24577.309    1027.0772   -5.7137199   0.17295542   0.09084445   -5.7170588    104.43248    104.26953   -100.07817 
  239000       956000    9792.9102   -34504.625    273.75372 -0.00077600554   -24711.715    1162.1849   -5.6848959   0.17524352  0.087229285   -5.6882652    104.35248    104.19036   -100.38507 
  239200       956800    9824.8688   -34368.014     274.6471 -0.057825315   -24543.145     993.8063    1.8266701 -0.053843943 -0.026953992    1.8276622    104.27248     104.3251   -100.55628 
  239400       957600    9741.2314   -34387.061    272.30908 -0.083474216    -24645.83    1097.1748     5.945782  -0.17318424 -0.087916744    5.9489534    104.19248    104.36285   -100.26699 
  239600       958400    9782.8341   -34326.777    273.47205  0.036885173   -24543.943    996.77451    3.2453365  -0.09335339 -0.048894703     3.247047    104.11248    104.20565   -99.897321 
  239800       959200    9847.1768   -34303.466    275.27071 -0.035642094   -24456.289    910.03982    2.2180243 -0.063683088 -0.034508162    2.2192066    104.03248    104.09628   -99.599554 
  240000       960000    9836.5307    -34329.17     274.9731 -0.093301706   -24492.639    948.03903    5.5310584  -0.15978972 -0.088828326     5.534079    103.95248    104.11099   -99.257524 
  240200       960800     9879.784    -34426.52    276.18222  -0.02511399   -24546.736     1001.303    5.2953654  -0.14774408 -0.087266204    5.2981448    103.87248    104.02425   -98.910302 
  240400       961600    9976.2075   -34362.467    278.87767  0.056237708    -24386.26    839.84636    1.6858221 -0.046683189 -0.027205188    1.6866877    103.79248    103.84107   -98.690095 
  240600       962400     9825.002   -34269.111    274.65083 -0.0039403479   -24444.109    898.08755   -2.5031059  0.070400305  0.039301691   -2.5044041    103.71248    103.64132   -98.619215 
  240800       963200    9893.7567   -34085.477    276.57281  0.047965585    -24191.72    646.02287   0.35485348 -0.0098409632 -0.0054139631    0.3550312    103.63248    103.64302   -98.755295 
  241000       964000    9860.0148   -34302.878    275.62958  0.047801047   -24442.863    898.56043    2.1248527 -0.061138322 -0.031536035     2.125966    103.55248    103.61362   -98.642262 
  241200       964800    9674.0628   -34111.468    270.43143 -0.055009744   -24437.405    892.95379   -3.2778245  0.094660186   0.04478608   -3.2794969    103.47248    103.37918   -98.668284 
  241400       965600    9805.1695   -34252.778    274.09642 -0.087886639   -24447.608    901.33283    -4.694599   0.13440652  0.060057779   -4.6969066    103.39248    103.25868    -99.07353 
  241600       966400     9837.598   -34311.591    275.00294  0.087759323   -24473.993    925.13759   -4.4688403   0.13134772  0.049752602    -4.471047    103.31248    103.18513   -99.299385 
  241800       967200    9861.7304   -34365.793    275.67754  0.031407936   -24504.063     954.5149   -3.1273654  0.093881847  0.036159542   -3.1289832    103.23248    103.14348   -99.631554 
  242000       968000     9871.813   -34382.324    275.95939  0.057261226   -24510.511    959.98233   -6.6223833   0.19238473  0.085455694   -6.6257282    103.15248    102.96357   -100.12884 
  242200       968800     9652.414   -34436.857    269.82625  0.050300126   -24784.443    1234.9566  -0.87351027   0.02622102 0.0099141681  -0.87395996    103.07248    103.04791   -100.30169 
  242400       969600    9854.1909   -34376.098    275.46678  0.056952011   -24521.907    973.33604   -4.5916593   0.14006887  0.056489927   -4.5941426    102.99248    102.86162   -100.66633 
  242600       970400    9916.6534   -34394.391    277.21288 -0.027667196   -24477.738    928.91301   -1.8757969  0.059484889  0.023450173   -1.8768864    102.91248    102.85925   -100.85599 
  242800       971200    9778.0607   -34419.153    273.33862 -0.023382635   -24641.092     1091.144   0.97616841 -0.030263998 -0.011239065    0.9767021    102.83248    102.86078   -100.97348 
  243000       972000    9915.9792   -34303.459    277.19403  0.042196658    -24387.48    836.19301   -4.1148323    0.1259044  0.053875547   -4.1171106    102.75248    102.63525   -101.12281 
  243200       972800    9936.7628   -34496.221    277.77502  0.040103098   -24559.458    1007.1903   -1.4170556  0.042525676  0.018696502   -1.4178169    102.67248    102.63237   -101.38645 
  243400       973600    9839.3474   -34464.279    275.05184  0.064617148   -24624.932    1073.9471   -2.5901467  0.079018132  0.034447239   -2.5915807    102.59248    102.51883   -101.44826 
  243600       974400    9915.0691   -34471.976    277.16859 -0.045389529   -24556.907    1005.4593   -5.6571874   0.17131621  0.081288249   -5.6603645    102.51248    102.35115   -101.79277 
  243800       975200    9854.8314   -34476.666    275.48469 0.00016170587   -24621.835    1068.4142   -5.2827899   0.16650723  0.083427729   -5.2860716    102.43248    102.28185   -102.27308 
  244000       976000    9774.4799   -34365.425    273.23852   0.15293652   -24590.945    1037.8579   -1.9118014  0.062045083  0.030358632   -1.9130488    102.35248    102.29822    -102.6047 
  244200       976800    9794.1841   -34306.028    273.78933  0.069532207   -24511.844    960.76148   0.26204888 -0.0085810866 -0.0040575432   0.26222073    102.27248    102.28037   -102.71363 
  244400       977600    9965.5519   -34351.071     278.5798 -0.071781643   -24385.519    835.30793   -2.0891731  0.068417383   0.03245748   -2.0905451    102.19248    102.13315   -102.71858 
  244600       978400    9823.5567   -34359.775    274.61042 -0.024382427   -24536.219    985.36495   -3.9092933   0.13136293  0.060359079   -3.9119654    102.11248    102.00111   -102.95627 
  244800       979200    9959.5729   -34412.558    278.41266 -0.023801556   -24452.985     900.7027    -3.579038   0.11778869  0.051575363   -3.5813471    102.03248    101.93055   -103.20824 
  245000       980000    9766.9642   -34502.625    273.02842  0.037598814   -24735.661    1180.9239   -4.7583896   0.16032303   0.06852947   -4.7615828    101.95248    101.81683    -103.5661 
  245200       980800    9986.5169   -34635.072    279.16586  0.078003699   -24648.555    1090.8516   -4.8228786   0.16110617  0.072662079   -4.8261157    101.87248    101.73499   -103.90294 
  245400       981600    9951.9737   -34628.199    278.20023  0.052158284   -24676.225    1117.7675   -5.4404705   0.18394718  0.075129134   -5.4440978    101.79248    101.63733     -104.295 
  245600       982400    9665.9841   -34432.953     270.2056 -0.0071808058   -24766.969    1207.3198    -7.754581    0.2649059   0.11193091   -7.7599118    101.71248    101.49117   -104.80427 
  245800       983200    9863.8721   -34479.204    275.73741 -0.070777351   -24615.331    1060.3101   -1.3235503   0.04397518  0.018144891    -1.324405    101.63248    101.59504   -105.26549 
  246000       984000    9927.9475   -34515.506    277.52859 -0.064955308   -24587.558    1032.7759   -3.9907844   0.13492745  0.055100688   -3.9934448    101.55248    101.43878    -105.4287 
  246200       984800    9733.5055   -34247.636    272.09311    0.0765952    -24514.13    957.12132   -6.8535752   0.22880223   0.09976036    -6.858119    101.47248    101.27693   -105.86553 
  246400       985600    9751.7231   -34434.414    272.60237  0.016972043   -24682.691    1123.9963   -7.7359217   0.25048895    0.1166066   -7.7408543    101.39248    101.17171   -106.40869 
  246600       986400    9808.1751   -34479.655    274.18044  0.032839198    -24671.48    1114.3807   -7.0866704   0.22850347   0.10224426   -7.0910905    101.31248    101.11028   -107.09356 
  246800       987200    9855.3379   -34315.296    275.49884 -0.010453451   -24459.958     902.7494   -5.3763922   0.17396376  0.088851895   -5.3799397    101.23248    101.07917   -107.59854 
  247000       988000    9722.0084   -34400.732    271.77171 -0.043938604   -24678.724    1118.4626   -4.2698804    0.1370118    0.0707283   -4.2726635    101.15248     101.0308   -107.97043 
  247200       988800    9935.3985   -34503.248    277.73688 -0.025898858    -24567.85    1006.0046    -2.658336  0.087470214  0.045433699   -2.6601627    101.07248    100.99687    -108.1969 
  247400       989600    9818.6269   -34355.477    274.47262 -0.039983945    -24536.85    975.13833    2.2634051 -0.073637812 -0.036912899    2.2649035    100.99248    101.05759   -108.30192 
  247600       990400    9786.6352   -34532.759    273.57831  0.051837435   -24746.123    1186.0444   0.98731108 -0.031279055 -0.015579788   0.98792929    100.91248     100.9411   -108.09755 
  247800       991200    9968.2928   -34353.799    278.65642 -0.020618531   -24385.506    826.85079  -0.71861396   0.02319238  0.010915379  -0.71907097    100.83248    100.81233   -107.96038 
  248000       992000    9706.5817   -34454.589    271.34047 -0.060492939   -24748.007    1186.2689   -8.5112259   0.26859692   0.13547976   -8.5165407    100.75248    100.50955     -108.414 
  248200       992800    9849.6178   -34506.675    275.33894  0.035689931   -24657.057    1091.0481   -9.9467673   0.30874461   0.15609438   -9.9527819    100.67248    100.38851   -109.24558 
  248400       993600    9815.9698   -34484.616    274.39834   0.11716585   -24668.646    1103.0859   -5.2114763   0.16682009  0.079989449   -5.2147591    100.59248    100.44388   -109.76216 
  248600       994400    9928.8528   -34578.846     277.5539 -0.040687008   -24649.993    1085.5014   -7.1516851   0.22956092   0.12049044   -7.1563829    100.51248    100.30841   -110.26247 
  248800       995200    9895.1255   -34514.407    276.61108 -0.076609738   -24619.281    1055.7012     -6.42623   0.19901528   0.10377692   -6.4301484    100.43248    100.24916   -110.84088 
  249000       996000    9853.4467   -34403.774    275.44598  0.029724311   -24550.328     986.5723   -6.2527391   0.19309406    0.1056158   -6.2566114    100.35248    100.17412   -111.34646 
  249200       996800    9920.5421   -34591.798    277.32158  -0.10542638   -24671.256    1108.0114   0.76994986 -0.023914505 -0.012449766   0.77042176    100.27248    100.29489   -111.50525 
  249400       997600    9862.9417   -34488.171     275.7114     0.093738    -24625.23    1060.5562   0.53452214 -0.016023311 -0.0090389616   0.53483864    100.19248    100.20816    -111.5021 
  249600       998400    9869.9606    -34606.59    275.90761  0.052895217   -24736.629    1171.0866    3.8498559  -0.12219737 -0.064338605     3.852332    100.11248    100.22294   -111.27157 
  249800       999200    9733.0763   -34541.416    272.08111 -0.015734757    -24808.34    1244.4561    5.1945535  -0.15940845 -0.085545197    5.1977029    100.03248    100.18138   -110.89434 
  250000      1000000    9738.4941   -34580.231    272.23256 -0.078462237   -24841.737    1277.4401     8.055982  -0.24602475  -0.12952049    8.0607785    99.952478    100.18319   -110.39244 
  250200      1000800    9756.7499   -34607.886    272.74289  0.018290731   -24851.136    1286.5489    8.9219402  -0.27708556  -0.14048417    8.9273472    99.872478    100.12795   -109.74188 
  250400      1001600    9937.2074   -34547.799    277.78745 -0.039380821   -24610.591    1045.6623    7.3703495  -0.22669091  -0.10846863    7.3746326    99.792478    100.00358   -108.99027 
  250600      1002400     9708.761   -34687.367    271.40139  0.053475466   -24978.606    1413.4276    6.5604923  -0.19838946 -0.096606874    6.5642022    99.712478    99.900427   -108.40006 
  250800      1003200    9671.8063    -34490.25    270.36835  0.096488482   -24818.443    1253.1293    7.3344965  -0.22871852  -0.09905738    7.3387304    99.632478    99.842556   -107.81754 
  251000      1004000    9829.0105   -34593.434    274.76288 -0.011232052   -24764.424    1200.9837    7.9631934  -0.24311047  -0.10390179     7.967581    99.552478    99.780523   -107.38188 
  251200      1004800    9714.2654     -34433.1    271.55527  -0.10817746   -24718.834    1158.0709    8.9540722  -0.26819896  -0.12604539    8.9589747    99.472478    99.728849   -106.65791 
  251400      1005600    9688.6988   -34533.269    270.84057 -0.037925831    -24844.57    1286.0987    4.6762558  -0.13779339 -0.060479675    4.6786765    99.392478    99.526555   -106.02164 
  251600      1006400    9884.4803    -34523.09     276.3135  0.062017077   -24638.609    1077.0963    3.4811458  -0.10323571 -0.041647009    3.4829252    99.312478     99.41239   -105.74003 
  251800      1007200    9821.8777   -34635.314    274.56349  0.084965547   -24813.436    1251.1299    3.3921166 -0.098253074 -0.044102971    3.3938258    99.232478    99.329844   -105.46505 
  252000      1008000    9658.7062   -34621.652    270.00215 -0.0022032862   -24962.946    1401.2511   -1.0387986  0.030678328  0.014879382    -1.039358    99.152478    99.123182   -105.48124 
  252200      1008800    9797.9691   -34539.581    273.89514  0.072209207   -24741.611    1179.4147   -1.6329197  0.048895634   0.02132202   -1.6337907    99.072478    99.026198   -105.48192 
  252400      1009600    9799.6964   -34414.387    273.94343  -0.10180329   -24614.691    1053.2789   -4.7279312   0.13643381  0.063377766   -4.7303239    98.992478    98.857726   -105.73004 
  252600      1010400    9886.5034   -34512.212    276.37005 -0.022183993   -24625.709    1064.7273     3.101781 -0.090808366 -0.039209495    3.1033577    98.912478    99.001545   -105.85256 
  252800      1011200    9913.7299   -34539.058    277.13115 -0.0044480592   -24625.328    1063.1976    2.0232645 -0.057234576 -0.027581865    2.0242618    98.832478    98.890714    -105.6495 
  253000      1012000     9876.504   -34513.037    276.09053  0.066760925   -24636.533    1074.5392   -1.6688063  0.049226283   0.02285412   -1.6696886    98.752478    98.705173   -105.64859 
  253200      1012800     9786.841   -34342.769    273.58406   0.11758491   -24555.928    995.02549    2.0843523 -0.062643305 -0.030158901    2.0855115    98.672478    98.732464   -105.50858 
  253400      1013600    9784.4102   -34579.247    273.51611 -0.061199292   -24794.837    1234.7408    5.8468392  -0.16644347 -0.087419817    5.8498611    98.592478    98.760017   -105.26448 
  253600      1014400    9796.7242   -34488.378    273.86034 -0.041474136   -24691.654    1130.8443    7.9773418  -0.22481671  -0.12152367    7.9814342    98.512478    98.740919   -104.77692 
  253800      1015200    9812.5565   -34535.297    274.30292  0.016306256    -24722.74    1162.1146    7.4079549  -0.21742512   -0.1228341    7.4121628    98.432478    98.644654   -104.11904 
  254000      1016000    9751.4412   -34520.168    272.59449 -0.048857366   -24768.727    1205.9181    8.3811712  -0.23837974  -0.12853852    8.3855457    98.352478    98.592465   -103.49903 
  254200      1016800    9940.8857   -34735.937    277.89027  0.075414432   -24795.051    1232.2032    8.6941118  -0.24766382  -0.12806855    8.6985814    98.272478    98.521409   -102.78136 
  254400      1017600    9778.8249   -34548.036    273.35998 -0.012541328   -24769.211    1208.9238     5.149378  -0.14862028 -0.084190949    5.1522102    98.192478    98.340084   -102.17673 
  254600      1018400    9884.9347   -34528.683     276.3262  0.024935371   -24643.749    1085.6228    5.9869905  -0.18185182  -0.10047978    5.9905944    98.112478    98.284038   -101.68549 
  254800      1019200     9836.414   -34413.003    274.96984 0.0036149869   -24576.589      1019.38    2.6860273 -0.080531156 -0.045087082    2.6876124    98.032478    98.109667   -101.33089 
  255000      1020000    9890.5472   -34470.843    276.48309 -0.0099392027   -24580.296    1023.2272    5.4506204  -0.16244393 -0.089637016    5.4537771    97.952478      98.1087   -101.03755 
  255200      1020800    9765.7929   -34581.577    272.99568  -0.11575815   -24815.784    1258.1705     3.790169  -0.11636318 -0.062793573    3.7924747    97.872478    97.981234   -100.72123 
  255400      1021600    9773.0269   -34703.526     273.1979  0.011803824   -24930.499    1372.2262            0            0            0            0    97.792478    97.792283   -100.55044 
  255600      1022400    9848.6096     -34633.4    275.31076  0.071059063    -24784.79    1226.3227    2.0316511 -0.064499278 -0.030796363    2.0329079    97.712478    97.770961   -100.48544 
  255800      1023200    9703.2081   -34460.233    271.24617 -0.055841655   -24757.025    1199.8553    1.6428887 -0.051637131 -0.025314828    1.6438949    97.632478    97.679846    -100.2964 
  256000      1024000    9824.1263   -34528.906    274.62635  0.059788697    -24704.78    1147.4446    5.0050503  -0.15427509 -0.080245566    5.0080703    97.552478    97.695966    -100.1085 
  256200      1024800     9893.188   -34474.973    276.55692  0.046745457   -24581.785    1024.1911    6.0083528  -0.18781142  -0.10219908    6.0121561    97.472478    97.644654   -99.648646 
  256400      1025600    9772.0807   -34441.937    273.17145  0.073054443   -24669.856    1112.8205    5.7218263   -0.1809871  -0.10820059    5.7257105    97.392478     97.55647   -99.208591 
  256600      1026400    9726.5983   -34436.313    271.90002   0.12344056   -24709.714    1152.8807    4.5035687  -0.13856046 -0.088815846    4.5065751    97.312478    97.441637    -98.75987 
  256800      1027200    9835.5292   -34653.478    274.94511  0.058785741   -24817.949    1261.4878     7.172513  -0.22572638  -0.15495402    7.1777368    97.232478    97.437956   -98.326733 
  257000      1028000    9933.1477   -34546.538    277.67396  0.045719167    -24613.39    1055.5247    11.264221  -0.34329299   -0.2239862    11.271676    97.152478    97.474926    -97.75589 
  257200      1028800    9841.2884   -34570.395     275.1061  0.010173458   -24729.107    1172.4412    14.092083  -0.44751886  -0.29846244    14.102346    97.072478    97.475802   -96.643922 
  257400      1029600    9710.3156   -34495.564    271.44485 -0.084234279   -24785.248    1230.8956     12.12869  -0.38885453  -0.26793604     12.13788    96.992478    97.339675   -95.469647 
  257600      1030400    9876.1175   -34489.456    276.07972 -0.043191744   -24613.339    1059.9196     15.20973  -0.48971797  -0.34312703    15.221479    96.912478    97.347777   -94.397053 
  257800      1031200    9956.0287   -34518.713    278.31358 -0.030064148   -24562.684    1009.7627    15.375688  -0.49004259  -0.33390967    15.387119    96.832478     97.27251   -93.185051 
  258000      1032000    9951.9937   -34470.304    278.20079  0.077563648    -24518.31    963.14788     19.02796  -0.59292701  -0.46113853     19.04278    96.752478    97.296957   -91.771296 
  258200      1032800    9843.8437   -34643.872    275.17753  -0.02828246   -24800.029    1248.5173    15.114364  -0.46798275  -0.34034794    15.125437    96.672478    97.105033   -90.414137 
  258400      1033600    9827.7397   -34541.527    274.72736 -0.079042016   -24713.787    1161.7795    16.228045  -0.49504458  -0.38813262    16.240233    96.592478    97.056885   -89.149386 
  258600      1034400    9762.8239   -34600.389    272.91268 -0.077460696   -24837.565    1286.7882     14.62404  -0.45884744  -0.34498329    14.635303    96.512478     96.93103   -87.877591 
  258800      1035200    9799.9048   -34583.302    273.94925  0.035848424   -24783.398    1234.4574    13.148245  -0.41384532  -0.30188489     13.15822    96.432478    96.808827   -86.740955 
  259000      1036000     9863.201   -34450.958    275.71865   0.16478025   -24587.757     1039.184    12.438886  -0.42520682   -0.2769466    12.449232    96.352478     96.70857   -85.643427 
  259200      1036800    9896.9732   -34433.926    276.66273  0.019632333   -24536.953    990.19367    12.744049  -0.40044748  -0.28157255    12.753448    96.272478    96.637262    -84.67006 
  259400      1037600    9737.4631   -34473.725    272.20374 -0.075244968   -24736.262    1193.0893    11.288989  -0.35635989  -0.24760705    11.297326    96.192478    96.515659   -83.707969 
  259600      1038400      9934.66   -34431.781    277.71624 -0.0054020285   -24497.121    955.49395    6.5342504  -0.20700943  -0.13854174    6.5389964    96.112478    96.299707   -83.042269 
  259800      1039200    9826.3194   -34581.341    274.68765  0.010052566   -24755.021    1212.6495     5.335482  -0.16631598  -0.11314521    5.3392725    96.032478    96.185429   -82.503634 
  260000      1040000    9952.9391   -34479.497    278.22722  0.037428928   -24526.558    984.67905    4.3525581  -0.13397534 -0.096391899    4.3556863    95.952478    96.077326   -82.122949 
  260200      1040800    9747.3732   -34546.916    272.48077  0.013055453   -24799.543    1258.1091    7.7080018   -0.2379808  -0.15517708    7.7132358    95.872478    96.093256    -81.70747 
  260400      1041600    9871.9123   -34654.995    275.96217  0.075876564   -24783.082    1241.7339    6.3244575  -0.19849792  -0.12965813       6.3289    95.792478    95.973704   -81.148984 
  260600      1042400    9801.0076   -34606.064    273.98008   0.06214278   -24805.056    1263.5385     8.840157  -0.27678009  -0.18448364    8.8464127    95.712478    95.965633   -80.528232 
  260800      1043200    9902.6702   -34619.266    276.82198   0.12307983   -24716.596    1174.5136    13.240795  -0.40862076  -0.26229303    13.249695    95.632478    96.011441   -79.590664 
  261000      1044000    9897.2157   -34633.737    276.66951  0.047676668   -24736.521    1196.4457    12.028035  -0.37480895  -0.22964957    12.036065    95.552478    95.896766   -78.512223 
  261200      1044800    9894.3208    -34703.96    276.58858 -0.064902894   -24809.639    1271.6428    8.9440315  -0.27045802  -0.16825291    8.9497014    95.472478    95.728584   -77.670224 
  261400      1045600    9817.5655   -34701.745    274.44294   0.06437489    -24884.18    1343.7389    12.242436  -0.37242843  -0.20464582    12.249809    95.392478    95.742873   -76.855602 
  261600      1046400    9895.6872   -34788.519    276.62678   0.13830944   -24892.832    1352.8937     6.403442  -0.18741883  -0.10772502    6.4070898    95.312478    95.495938    -76.10533 
  261800      1047200    9812.3057   -34679.136    274.29591 -0.066749715    -24866.83    1330.3147    6.3945716  -0.19283302  -0.10543429    6.3983472    95.232478    95.415688   -75.589168 
  262000      1048000     9829.626   -34549.712    274.78009 -0.074669435   -24720.086    1184.6388    14.377056   -0.4042663   -0.2214632    14.384443    95.152478    95.563862   -74.864153 
  262200      1048800    10030.196   -34631.254    280.38687 -0.052776611   -24601.058    1066.2044    12.686008  -0.35540924  -0.19661584    12.692509    95.072478    95.435521   -73.778185 
  262400      1049600    9915.6305   -34445.507    277.18428  0.079884937   -24529.877    995.22123    9.9999748  -0.28635904  -0.16094389    10.005369    94.992478    95.278746   -72.865429 
  262600      1050400    9896.3065   -34680.149    276.64409 -0.003815613   -24783.843    1246.8895    17.490187  -0.47532863  -0.29577742    17.499145    94.912478    95.412854   -71.699319 
  262800      1051200    9768.9947   -34751.504    273.08518 -0.025209792   -24982.509    1448.3757    16.129836  -0.44885145  -0.27267677    16.138383    94.832478    95.293975   -70.373697 
  263000      1052000    9796.8901   -34601.159    273.86498  0.048459115   -24804.269    1269.9478    17.167351  -0.46704882  -0.26824617    17.175798    94.752478    95.243615   -69.078929 
  263200      1052800    9715.1489   -34549.032    271.57996   0.01387596   -24833.883    1301.2662    15.564029  -0.42875526    -0.267472    15.572231    94.672478    95.117799   -67.788919 
  263400      1053600    9828.1939   -34577.017    274.74005 -0.065896892   -24748.823    1218.2972    17.330027  -0.43942464  -0.27277791    17.337743    94.592478    95.088242   -66.406661 
  263600      1054400    9741.7601    -34673.32    272.32386 -0.027995102    -24931.56    1403.0638    16.250604  -0.43721939  -0.24554179    16.258339    94.512478    94.977402   -65.042888 
  263800      1055200    9822.1845   -34686.974    274.57206  0.046488121   -24864.789    1336.4383    15.475586  -0.40086714  -0.21816699    15.482315    94.432478     94.87523    -63.76819 
  264000      1056000     9878.477   -34519.896    276.14568  0.072431064   -24641.419    1114.2211    12.961891  -0.32963247  -0.18563111    12.967411    94.352478    94.723375    -62.60194 
  264200      1056800    9937.7282   -34551.541      277.802   0.12470247   -24613.813    1088.0384    9.5949095  -0.25161441  -0.13129846    9.5991061    94.272478    94.547138   -61.717904 
  264400      1057600    9742.5194   -34595.929    272.34508   0.08393825   -24853.409    1329.0541    10.001993  -0.25984578  -0.12078753    10.006097    94.192478    94.478767   -60.890453 
  264600      1058400    9787.4418   -34440.483    273.60086   0.07810103   -24653.041    1131.5591    1.5789801 -0.042114809 -0.023897776    1.5797224    94.112478    94.158013    -60.52291 
  264800      1059200    9756.7663   -34607.231    272.74335  -0.04981579   -24850.465    1329.8901    2.8526771 -0.082059096 -0.041295309    2.8541559    94.032478    94.114425   -60.276011 
  265000      1060000    9785.8799   -34375.864     273.5572   0.12335479   -24589.984    1069.8164     5.338779  -0.15441349 -0.087706922    5.3417316    93.952478    94.105499   -59.930074 
  265200      1060800    9809.7945   -34651.919    274.22571 -0.020108463   -24842.125    1321.3037    9.3613381  -0.27639112  -0.14942419    9.3666094    93.872478    94.140495   -59.345678 
  265400      1061600    9910.8017   -34558.895     277.0493  0.080616374   -24648.093    1127.4003    12.667181  -0.36579512  -0.19492627    12.673961    93.792478    94.154991   -58.359317 
  265600      1062400    9752.5047   -34500.143    272.62422  0.032934786   -24747.638    1227.5515    12.709452  -0.38253917  -0.18838896    12.716603    93.712478     94.07621   -57.479171 
  265800      1063200     9874.144   -34609.026    276.02456  0.014980579   -24734.882    1214.1772    15.404983  -0.48314598  -0.22947571    15.414266    93.632478    94.073286   -56.337576 
  266000      1064000    9666.4391   -34530.487    270.21831  0.057174039   -24864.048    1342.0534    16.423815  -0.49740313  -0.24768466    16.433212    93.552478    94.022398   -55.082426 
  266200      1064800    9796.8086   -34710.738     273.8627  0.037445488    -24913.93    1393.5904    15.951182  -0.50313787  -0.23631927    15.960864    93.472478    93.928903   -53.855999 
  266400      1065600    9891.3252   -34643.304    276.50484 -0.031688134   -24751.979    1231.0054    19.469436  -0.63200416   -0.3022245    19.482035    93.392478    93.949508    -52.41774 
  266600      1066400    9706.1306   -34678.036    271.32786 -0.053757904   -24971.906    1453.7992    16.333938  -0.51847046  -0.24677014    16.344027    93.312478     93.77985   -50.925968 
  266800      1067200    9848.6191   -34706.673    275.31103   0.12224359   -24858.054    1337.7757    18.985461   -0.5913513  -0.31251097    18.997239    93.232478    93.775656    -49.44759 
  267000      1068000    9766.8716   -34726.592    273.02583  0.082836706    -24959.72    1443.6259    15.633372  -0.51174026  -0.24374802    15.643644    93.152478    93.599839   -48.028699 
  267200      1068800    9863.7986   -34621.875    275.73536  0.089617179   -24758.077    1244.2534    16.266531  -0.52570719  -0.27740779    16.277388    93.072478    93.537946   -46.822728 
  267400      1069600    9836.1553   -34713.528    274.96261  0.056510366   -24877.373    1365.8704    12.710765  -0.42025105  -0.19846076    12.719259    92.992478    93.356285   -45.778726 
  267600      1070400    9962.6044   -34657.623     278.4974  0.085436873   -24695.018    1181.4335     16.22946  -0.51252932   -0.2694422    16.239786    92.912478    93.376872   -44.606862 
  267800      1071200    9868.0059   -34861.072    275.85297   0.13114515   -24993.066    1481.1919    15.164056  -0.48292305   -0.2546202     15.17388    92.832478    93.266417   -43.317965 
  268000      1072000    9947.5826   -34814.165    278.07748  0.032503025   -24866.583    1355.7486    18.089612  -0.58928566  -0.30619801    18.101797    92.752478    93.270072   -41.985427 
  268200      1072800    9838.2066   -34642.578    275.01995  0.093263186   -24804.371    1296.5695    17.163808   -0.5732269   -0.2638899    17.175405    92.672478    93.163604   -40.558313 
  268400      1073600    9808.9823   -34649.044    274.20301 -0.043898957   -24840.062     1332.294    22.756173  -0.75504974  -0.35564155    22.771473    92.592478    93.243492   -39.043423 
  268600      1074400    9824.0596   -34628.292    274.62448 -0.052431727   -24804.233    1298.3044    21.085572  -0.69847642  -0.34416914    21.099945    92.512478    93.115734   -37.163683 
  268800      1075200    9818.7713   -34780.521    274.47665 -0.0044758533    -24961.75     1454.666    24.067477  -0.80313215  -0.41103808    24.084381    92.432478    93.121003   -35.421029 
  269000      1076000    9714.4978    -34732.71    271.56176 0.0058376391   -25018.212    1513.2509    21.456432  -0.71849956  -0.35477064    21.471389    92.352478    92.966346   -33.643656 
  269200      1076800    9723.2161   -34771.805    271.80547  0.089963729   -25048.589    1544.9236    21.727544   -0.7188157  -0.36515685    21.742498    92.272478    92.894092   -32.036534 
  269400      1077600    9875.6623   -34722.916      276.067 0.0035681666   -24847.254    1345.5801    20.364217  -0.67029377  -0.36074017    20.378439    92.192478    92.775119   -30.361873 
  269600      1078400    9917.7728    -34624.76    277.24417  0.057223266   -24706.987    1208.7768    20.212806  -0.69662184  -0.34993784    20.227834    92.112478    92.690816   -28.668615 
  269800      1079200    9853.6065   -34550.629    275.45045 -0.045409858   -24697.022    1203.5657    16.623179  -0.56777438  -0.30343521     16.63564    92.032478    92.508182     -27.1451 
  270000      1080000    9816.1884   -34805.593    274.40445   -0.1568637   -24989.404    1499.6449    12.716314   -0.4447316  -0.20881862    12.725802    91.952478    92.316472   -26.026376 
  270200      1080800    9875.0352   -34602.487    276.04947 -0.029688911   -24727.452    1236.3608    15.825693    -0.541898  -0.24785199    15.836908    91.872478    92.325361   -24.779593 
  270400      1081600    9867.2379   -34660.187     275.8315  0.038063118   -24792.949    1300.5292    13.663276  -0.44389203  -0.23363775    13.672481    91.792478     92.18352   -23.545049 
  270600      1082400    9905.1907   -34874.674    276.89244   0.14273717   -24969.483     1473.874    19.904593  -0.65350698  -0.32520305    19.917973    91.712478    92.281963   -22.222958 
  270800      1083200    9876.7973   -34920.659    276.09873  0.092524718   -25043.861    1550.7116    18.474489  -0.54992052  -0.28457746    18.484862    91.632478    92.161017   -20.703453 
  271000      1084000    9983.3538   -34697.185    279.07744  0.077044039   -24713.831     1225.301    15.845512  -0.48312039  -0.27690923    15.855294    91.552478    92.005886   -19.226404 
  271200      1084800    9902.0947   -34792.311     276.8059 -0.042583362   -24890.216      1400.96    24.141036  -0.72454678  -0.42995804    24.155734    91.472478    92.163042   -17.717886 
  271400      1085600    9899.2362   -34689.722    276.72599 -0.0017996168   -24790.485    1306.2575     17.53643  -0.52342953  -0.28542878    17.546562    91.392478    91.894208   -16.068768 
  271600      1086400    9757.9223   -34705.582    272.77566  0.015072077    -24947.66    1463.9676    15.682415  -0.46146773  -0.25365036    15.691253    91.312478      91.7612   -14.722626 
  271800      1087200    9871.4357   -34823.388    275.94885   0.11169059   -24951.953    1469.8335     14.62868  -0.43816022  -0.20118395    14.636623    91.232478    91.651067   -13.444032 
  272000      1088000    9902.1517   -34687.606    276.80749  0.095723643   -24785.454    1303.8003    20.221997  -0.60617735  -0.29571763    20.233241    91.152478    91.730971   -11.982298 
  272200      1088800    9826.5847   -34684.659    274.69507   0.08277396   -24858.074    1378.3205    17.572004  -0.50787331  -0.25581526    17.581203    91.072478    91.575198   -10.513661 
  272400      1089600    9866.7065   -34800.668    275.81665  0.064678457   -24933.961    1454.7279    17.131363  -0.49767807  -0.22129517    17.140019    90.992478    91.482593    -9.134165 
  272600      1090400    9868.8338   -34572.171    275.87611  0.026728507   -24703.337    1224.5857    20.507532  -0.58034174  -0.25682665     20.51735    90.912478    91.499088   -7.5430817 
  272800      1091200    9670.6958   -34638.864    270.33731 -0.027197615   -24968.169    1493.1289    19.131981  -0.52242395  -0.24961431     19.14074    90.832478    91.379756   -5.8904359 
  273000      1092000    9869.2923   -34796.945    275.88893  0.040770452   -24927.653    1452.5243    19.298988  -0.52857141  -0.23146524    19.307612    90.752478    91.304524    -4.395846 
  273200      1092800    9837.3338   -34735.542    274.99555   0.10045554   -24898.209    1424.5639    18.751165  -0.50845954  -0.23704336    18.759555    90.672478    91.208865    -2.950257 
  273400      1093600    9820.5857    -34682.41    274.52737  0.081900896   -24861.824    1391.1077     16.30641  -0.43117559  -0.21537133    16.313531    90.592478    91.058979   -1.4861884 
  273600      1094400    9713.6191   -34548.615     271.5372  0.051778024   -24834.995    1364.6355    20.073798  -0.51480674  -0.22724271    20.081684    90.512478     91.08664  0.013875892 
  273800      1095200    9920.9253   -34704.803    277.33229  0.030005658   -24783.877    1315.0765    22.000774  -0.55884185  -0.30967246    22.010049    90.432478    91.061737    1.6203431 
  274000      1096000    9923.2738   -34702.388    277.39794  -0.02434421   -24779.114    1311.4372    21.073902   -0.5638013   -0.2544038    21.082977    90.352478    90.955249    3.4127803 
  274200      1096800    9824.7155    -34715.37    274.64282  0.031939999   -24890.655    1420.1684    23.463927  -0.63358087  -0.29171851    23.474292    90.272478    90.943572    5.1995738 
  274400      1097600    9905.3135   -34685.661    276.89588  0.060780226   -24780.348    1310.6562     23.31045  -0.61653281  -0.29171558    23.320427    90.192478    90.859176    7.0660409 
  274600      1098400    9602.0605   -34711.816    268.41866  0.024021315   -25109.755    1648.9047    16.833157  -0.46594415  -0.23061773    16.841183    90.112478    90.594055    8.6979656 
  274800      1099200    9905.7799   -34569.166    276.90891  -0.12756745   -24663.386    1206.4441    16.808356  -0.48080289   -0.2286156    16.816786    90.032478    90.513358    9.9970922 
  275000      1100000    9941.3513   -34640.506    277.90329  0.003938286   -24699.155    1243.2277    17.094231  -0.44686245  -0.23750448    17.101721    89.952478    90.441499    11.419322 
  275200      1100800    9956.3548   -34753.162     278.3227   0.17211822   -24796.808    1340.4446    15.669726  -0.41348926  -0.19990949    15.676455    89.872478    90.320777    12.664473 
  275400      1101600     9903.029   -34728.136    276.83202 0.0041678992   -24825.107    1369.1633    11.584087  -0.30305479   -0.1455072    11.588964    89.792478    90.123991    13.801501 
  275600      1102400    9886.2156   -34589.659    276.36201   0.14452972   -24703.443    1246.9185    12.904466  -0.31455582  -0.17574217    12.909496    89.712478    90.081721    14.912647 
  275800      1103200    9773.2617    -34663.62    273.20446    0.1225352   -24890.358    1434.2775    14.109131  -0.34620609  -0.21309919    14.114987    89.632478    90.036163    15.940989 
  276000      1104000    9743.7189   -34706.565    272.37862 -0.046547842   -24962.847    1507.7611    19.622592  -0.46279507  -0.28378436      19.6301    89.552478    90.113738    17.251628 
  276200      1104800    9831.7265    -34793.89    274.83881 -0.028620531   -24962.163    1510.0786    19.474181  -0.45610353  -0.28220789    19.481566    89.472478    90.029494    18.782962 
  276400      1105600    9826.0502   -34588.198    274.68013 0.0074145155   -24762.148    1311.3877    20.572774  -0.47413615  -0.31014598    20.580574    89.392478    89.980894    20.351484 
  276600      1106400    9820.6039   -34764.305    274.52788  -0.04507157   -24943.701    1492.2001    23.756455  -0.59830178  -0.32724677    23.766241    89.312478    89.991913     22.20382 
  276800      1107200    9900.5577   -34768.255    276.76293   0.11916607   -24867.697    1415.3608    24.622144  -0.61887812   -0.3350177    24.632199    89.232478    89.936655    24.124323 
  277000      1108000    9805.8661   -34748.588     274.1159  0.065889078   -24942.722    1491.7961    24.162575    -0.612075  -0.35452904    24.172926    89.152478    89.843533    25.984252 
  277200      1108800    9862.3614   -34806.504    275.69518 0.0044129598   -24944.142    1495.2487    23.319223  -0.63353562  -0.33587286    23.330245    89.072478    89.739456    27.836935 
  277400      1109600     9815.226   -34823.812    274.37754  0.095107634   -25008.586    1558.4105     28.68201  -0.72681475  -0.41718008     28.69425    88.992478    89.812714    29.894536 
  277600      1110400    9728.7628   -34782.349    271.96053  0.052273676   -25053.587    1604.3836    29.892596  -0.78435275  -0.41701676    29.905792    88.912478    89.767329    32.267486 
  277800      1111200    9960.0701   -34769.102    278.42656 0.0088667843   -24809.031    1362.6053    29.960179  -0.82780718  -0.40753732    29.974384    88.832478    89.689289    34.728967 
  278000      1112000    9901.0542   -34750.937    276.77681  0.081482895   -24849.883    1403.8502    33.850295  -0.87754243  -0.41520229    33.864213    88.752478    89.720427    37.267601 
  278200      1112800    9926.4718   -34807.934    277.48734 -0.064508851   -24881.462    1442.4423    31.861858  -0.90380749  -0.32814244    31.876364    88.672478    89.583631    39.842107 
  278400      1113600    9881.2992   -34736.334    276.22457 -0.048206041   -24855.035    1414.5434    34.606499  -0.98246193    -0.365749    34.622374    88.592478    89.582089    42.545305 
  278600      1114400    9899.6231   -34873.983    276.73681  0.057822611    -24974.36    1534.5866    34.832446  -0.98930449  -0.34879105    34.848238    88.512478    89.508542    45.361307 
  278800      1115200    9982.8076   -34793.884    279.06217    0.1539728   -24811.076    1376.5253    29.769039  -0.85350169  -0.24951411    29.782317    88.432478    89.283801    47.944559 
  279000      1116000    9958.7838    -34904.84     278.3906   0.12620668   -24946.056    1513.3642    29.818341  -0.82599697  -0.26010881    29.830913    88.352478     89.20519    50.437089 
  279200      1116800    9881.7759   -34889.613     276.2379 -0.062988873   -25007.837    1580.5524    28.226608  -0.82060811  -0.22888127    28.239461    88.272478     89.07972    52.825454 
  279400      1117600    9744.1609   -34869.506    272.39097 -0.087472122   -25125.345    1700.4585    28.759979  -0.79091838  -0.23003736    28.771772    88.192478    89.014929    55.094889 
  279600      1118400    9792.8811   -34851.099    273.75291  0.028000513   -25058.218    1631.7707     29.12796  -0.81452137  -0.25098661    29.140428    88.112478    88.945462    57.349209 
  279800      1119200    9720.5109   -34871.544    271.72985   0.11415261   -25151.033    1726.8639      27.8811  -0.77117051  -0.21348258     27.89258    88.032478    88.829809     59.72792 
  280000      1120000    9834.0809   -34858.329    274.90462  0.071388098   -25024.248    1603.2058     28.53735  -0.77485484  -0.26169911    28.549068    87.952478    88.768566     61.94379 
  280200      1120800    9809.5848   -34710.595    274.21985 -0.027933637   -24901.011    1490.0948    22.418192  -0.60930963  -0.22032842    22.427553    87.872478    88.513665    63.989654 
  280400      1121600    9714.7995   -34797.174    271.57019  0.035097616   -25082.374    1669.7262    29.516672  -0.76327732  -0.27532235    29.527823    87.792478     88.63653    66.035966 
  280600      1122400    9748.3917   -34758.617    272.50924 -0.032388692   -25010.226    1596.5947    30.588583  -0.78387721  -0.31224381    30.600218    87.712478     88.58717    68.489627 
  280800      1123200    9701.5605   -34857.468    271.20011   0.12371062   -25155.908    1744.1236    27.201722  -0.70354862  -0.28156921    27.212275    87.632478    88.410372    70.828402 
  281000      1124000     9923.065   -34898.618    277.39211   0.08865943   -24975.552     1568.243     21.95006  -0.54033823  -0.23663837    21.957985    87.552478    88.180249    72.787966 
  281200      1124800    9698.4818   -34908.368    271.11404   0.25387143   -25209.886    1803.4209    24.136713  -0.58345134  -0.23560081    24.144913    87.472478    88.162733     74.58889 
  281400      1125600    9939.7465   -34823.609    277.85843 -0.083168793   -24883.863    1482.1456    24.781148  -0.59897769  -0.24526962    24.789599    87.392478    88.101152    76.584203 
  281600      1126400     9799.468   -34736.814    273.93704 -0.052636506   -24937.346     1540.138    24.244843  -0.61261795  -0.23097428    24.253681    87.312478     88.00584    78.568896 
  281800      1127200    9847.6465   -34777.534    275.28384 -0.041042075   -24929.887    1529.6574    28.499417  -0.69274089  -0.25787211    28.509001    87.232478    88.047421     80.71967 
  282000      1128000    9840.9415   -34958.181     275.0964   0.02402177   -25117.239    1719.0158    25.100958  -0.63505947  -0.20942563    25.109864    87.152478    87.870303    82.864757 
  282200      1128800    9923.6139   -34889.732    277.40745   0.17183576   -24966.118    1569.2747    23.777185  -0.57977026  -0.19892628    23.785084    87.072478    87.752452    84.846417 
  282400      1129600    9755.4416   -34926.709    272.70632 0.0029790733   -25171.268    1774.6264    25.463022  -0.63043094  -0.23409995    25.471901    86.992478    87.720647    86.852472 
  282600      1130400    9830.1501   -34953.563    274.79474   0.13542802   -25123.412    1730.0863    25.133501  -0.64706681  -0.23384299    25.142917    86.912478    87.631247    88.865806 
  282800      1131200    9905.9318   -35067.299    276.91316  0.013861665   -25161.367     1770.441     26.88429  -0.69021815  -0.22908436    26.894124    86.832478    87.601282    91.001445 
  283000      1132000    10037.825   -34950.911    280.60014 -0.010454741   -24913.086     1526.316    27.065193  -0.74487856  -0.24880791    27.076585    86.752478    87.526495    93.208138 
  283200      1132800    9695.9518   -34830.802    271.04332 0.0013233109    -25134.85    1752.1362    24.597816  -0.70393837  -0.20642805    24.608753    86.672478    87.375985    95.218112 
  283400      1133600    9815.2458   -34891.997     274.3781  0.065159845   -25076.751    1694.0612    24.217568   -0.6879929  -0.15699221    24.227847    86.592478    87.285102    97.235205 
  283600      1134400    9730.5488   -34904.944    272.01046  0.074815519   -25174.395    1788.6001    27.341593  -0.80722331  -0.19759958     27.35422    86.512478    87.294427    99.305621 
  283800      1135200    9777.9679   -35104.559    273.33602  0.066809174   -25326.591    1941.1737     28.00957  -0.80052787  -0.18712061    28.021632    86.432478    87.233496    101.51384 
  284000      1136000    9860.0386   -35044.896    275.63025   0.12444506   -25184.857    1802.4125    28.791054  -0.82048781  -0.15747182    28.803174    86.352478    87.175826    103.74951 
  284200      1136800    9857.7085   -35011.955    275.56511  0.043821371   -25154.246    1774.8991    29.637523  -0.84158204  -0.18431693    29.650043    86.272478    87.120022    106.08599 
  284400      1137600    9666.7218   -34972.749    270.22622   0.06085887   -25306.027      1926.14    33.982357  -0.97311596  -0.23601443    33.997106    86.192478    87.164224    108.74044 
  284600      1138400    9894.6912   -34915.383    276.59894 -0.032940248   -25020.692     1641.951    34.901611  -0.98719351  -0.25052279    34.916468    86.112478    87.110491    111.38128 
  284800      1139200    9809.8766   -35123.648    274.22801 -0.027086484   -25313.772    1940.7421      30.6734  -0.88402033  -0.20401808    30.686814    86.032478    86.909644    114.08155 
  285000      1140000    9889.3873   -35051.332    276.45067    0.1375432   -25161.944    1790.0597    30.262605  -0.86818347  -0.20521927    30.275751    85.952478      86.8179     116.5267 
  285200      1140800    9829.0827   -34952.674     274.7649  0.086284511   -25123.591    1755.5101    28.548675  -0.84336715  -0.19020625    28.561763    85.872478    86.688928    118.81796 
  285400      1141600    9778.7546   -34929.179    273.35801  0.032532174   -25150.425    1786.4005    27.387725  -0.75629121  -0.16581564    27.398667    85.792478    86.575697    121.02248 
  285600      1142400     9839.624   -35076.328    275.05957   0.10958868   -25236.704    1876.4561     27.23341  -0.77781814  -0.17604151    27.245084    85.712478    86.491309    123.25441 
  285800      1143200    9907.3712   -34952.457     276.9534   0.12666369   -25045.086    1684.3223    31.950822  -0.94389374  -0.23952152    31.965659    85.632478    86.546183     125.5752 
  286000      1144000    9900.3692   -34977.564    276.75766    0.1132168   -25077.195    1720.4821    31.640371  -0.89309411   -0.1799107    31.653484    85.552478    86.457263     128.2006 
  286200      1144800    9866.7863   -35006.291    275.81888  0.071433238   -25139.505    1782.6636    33.179178  -0.92579756  -0.17790825    33.192569    85.472478    86.421237    130.79056 
  286400      1145600    9919.8451   -34861.595     277.3021   0.10593259    -24941.75    1582.1593    37.434972     -1.03527  -0.23948792     37.45005    85.392478    86.462879    133.62701 
  286600      1146400    9805.4685   -34911.349    274.10478   0.17465349   -25105.881    1746.1454    38.301163   -1.0137222  -0.28718723    38.315652    85.312478    86.407611    136.73671 
  286800      1147200    9766.4728   -34888.845    273.01468    0.1577118   -25122.372    1766.2327    39.393572   -1.0157014  -0.30489027    39.407843    85.232478    86.358816     139.8272 
  287000      1148000    9808.8327   -34981.101    274.19883  0.078974042   -25172.268    1825.7738    33.756867   -0.8001768  -0.25418258    33.767306    85.152478    86.117658    142.81472 
  287200      1148800    10038.463   -34954.462    280.61798  0.043488839   -24915.999    1569.5653    35.424113  -0.81016873  -0.27797126    35.434467    85.072478    86.085291    145.48321 
  287400      1149600    9911.2936   -34935.306    277.06305  0.022152541   -25024.012    1676.8652    37.118152  -0.83138569  -0.27459502    37.128477    84.992478    86.053692    148.33389 
  287600      1150400    9712.4158   -34984.021    271.50356  0.089668653   -25271.606    1928.0723    35.582703  -0.79326473  -0.29712966    35.592784    84.912478    85.929815    151.29341 
  287800      1151200    9709.4953    -34932.92    271.42192   0.18808581   -25223.425    1883.8899    35.278159  -0.76732565  -0.23559801     35.28729    84.832478    85.841086    154.01554 
  288000      1152000     9947.944   -34938.768    278.08758  -0.10817347   -24990.824    1660.2688     31.19208  -0.70338963  -0.19396184    31.200613    84.752478    85.644324    156.62727 
  288200      1152800    9798.2871     -34864.3    273.90403  -0.10239287   -25066.013    1732.3761     37.19131  -0.83827699  -0.17772697     37.20118    84.672478    85.735769    159.35359 
  288400      1153600    9887.5735   -34870.238    276.39997  0.075137918   -24982.664    1652.0059    36.510559  -0.85872386  -0.13935636    36.520922    84.592478    85.636333    162.42895 
  288600      1154400    9774.3721   -34960.264     273.2355  0.036595625   -25185.892    1854.8208    38.729953  -0.91899441  -0.19263831    38.741333    84.512478    85.619773    165.40706 
  288800      1155200     9896.636   -34857.699     276.6533   0.10395825   -24961.063    1635.1119    36.585502  -0.85715619  -0.13335012    36.595785    84.432478    85.478472    168.43439 
  289000      1156000     9922.752   -34915.863    277.38336  0.063878671   -24993.111    1670.0762    37.082723  -0.87572571  -0.18531201    37.093525    84.352478    85.412693    171.38403 
  289200      1156800    9837.1029   -34813.127     274.9891  0.083177207   -24976.024    1656.2205    37.724571   -0.8720904  -0.21639298     37.73527    84.272478    85.351029    174.33488 
  289400      1157600    9844.2627   -34874.624    275.18924    0.1492163   -25030.362    1714.2855    36.592301  -0.84592279  -0.28314153    36.603173    84.192478    85.238683      177.386 
  289600      1158400    9851.4603    -34834.58    275.39045  0.030652694   -24983.119    1667.7772    39.206919  -0.92366328  -0.27014896    39.218728    84.112478    85.233413    180.22995 
  289800      1159200    9824.4151   -34891.194    274.63442  0.075669189   -25066.779    1751.0758    42.425363  -0.97406732  -0.33431387    42.437861    84.032478    85.245388    183.52763 
  290000      1160000    9727.0808   -34979.766    271.91351 -0.00079997015   -25252.685     1942.548    39.128925  -0.93900475   -0.3079199    39.141401    83.952478    85.071204    186.69721 
  290200      1160800    9861.2986   -34939.147    275.66547 0.0053547096   -25077.848    1770.0227    40.424891  -0.93212122  -0.31077397     40.43683    83.872478    85.028216    189.99378 
  290400      1161600    9803.4397   -34872.761    274.04807   0.05858998   -25069.322    1767.9069    37.420301  -0.83178907  -0.27841475     37.43058    83.792478    84.862323    193.11186 
  290600      1162400    9849.9919    -34866.62     275.3494   0.15159362   -25016.628    1710.1393    42.557028   -1.0538244  -0.38915955    42.571853    83.712478    84.929217    196.25137 
  290800      1163200    9888.2822   -34934.915    276.41978   0.16032967   -25046.633    1741.9496    43.089369   -1.0281095  -0.36873845     43.10321    83.632478    84.864398    199.70969 
  291000      1164000    9876.3008   -35121.528    276.08485   0.10356659   -25245.227    1947.5003    39.885964  -0.97215837  -0.35643369    39.899402    83.552478    84.692861    203.11605 
  291200      1164800    9899.6596   -35005.204    276.73782   0.12094344   -25105.544     1813.818    38.413185   -1.0144613  -0.39036539    38.428561    83.472478    84.570837    206.15747 
  291400      1165600    9780.9636   -34969.511    273.41977  0.016147094   -25188.548    1901.7454    37.036305  -0.90610488  -0.39977987    37.049544    83.392478    84.451436    209.26846 
  291600      1166400    9894.6527   -34989.573    276.59786       0.1359   -25094.921    1807.5143    39.427292   -1.0805183  -0.50716351    39.445356    83.312478    84.439888    212.26106 
  291800      1167200    9835.5449   -35167.552    274.94555     0.139608   -25332.007    2043.9596    41.317849   -1.0938251  -0.47677947    41.335075    83.232478     84.41388    215.43391 
  292000      1168000    9918.8741   -35159.014    277.27495  0.089214099    -25240.14    1953.1502    43.032738   -1.0916566  -0.64519479    43.051418    83.152478    84.382919    218.90007 
  292200      1168800    9804.7288   -35079.878     274.0841   0.10862759   -25275.149    1993.5594    42.000552   -1.0868418  -0.61758921     42.01915    83.072478    84.273425    222.29387 
  292400      1169600    9860.9944   -35071.031    275.65697   0.12744274   -25210.036    1928.3851    46.054092   -1.1689401  -0.72660227    46.074655    82.992478    84.309297    225.79407 
  292600      1170400    9904.8521   -35170.538    276.88298  0.024890567   -25265.686    1979.2122    52.468295   -1.2985225  -0.81406892    52.490674    82.912478    84.412612    229.79497 
  292800      1171200    9749.3385    -34973.08    272.53571 0.0022260273   -25223.741    1943.0076    51.361796   -1.3376633  -0.83412362    51.385983    82.832478    84.301049     233.8834 
  293000      1172000    9786.3265   -35266.587    273.56968  0.069488671    -25480.26    2201.9645    52.284995   -1.3201012  -0.85868513    52.308706    82.752478    84.247412    238.05822 
  293200      1172800    9813.4243   -35089.356    274.32718   0.09557719   -25275.931     1998.264    54.370506   -1.4379818  -0.89889583    54.396946    82.672478    84.227076     242.3194 
  293400      1173600    9797.1588   -35148.643    273.87249  0.089969708   -25351.484    2081.1246    51.719724    -1.400516  -0.88795844    51.746302    82.592478    84.071344    246.53367 
  293600      1174400    9808.2567   -34908.863    274.18272   0.19157981   -25100.606    1822.0733    58.245958    -1.596827    -1.002598    58.276467    82.512478     84.17792    250.82296 
  293800      1175200    9819.6176   -35215.529    274.50031   0.09403746   -25395.911    2128.7141    55.175318   -1.4123441  -0.89951689    55.200721    82.432478    84.010041    255.45343 
  294000      1176000    9828.4403   -35063.185    274.74694   0.12783661   -25234.745    1979.4203    51.232378   -1.3326063  -0.81373581    51.256166    82.352478     83.81734    259.72193 
  294200      1176800    9925.1097    -34987.72    277.44926   0.04417726    -25062.61    1809.8049    53.431961   -1.3963463  -0.80130981     53.45621    82.272478    83.800198     263.9806 
  294400      1177600    9971.0731   -34977.254    278.73414  0.030821947   -25006.181    1755.5285    54.635925   -1.3899196  -0.84912874    54.660197    82.192478    83.754598    268.26782 
  294600      1178400    9827.9472   -35064.833    274.73316   0.13415453   -25236.886    1981.0794    58.508243   -1.4932999  -0.89494129    58.534139    82.112478    83.785282    272.81911 
  294800      1179200    9981.5435   -35158.508    279.02683   0.25586674   -25176.965    1932.5779    53.290519   -1.2533327  -0.83025598    53.311721    82.032478     83.55607     277.1755 
  295000      1180000    9851.0757    -34959.06     275.3797     0.183865   -25107.985    1863.7631    57.580868   -1.3983891  -0.83832708    57.603947    81.952478    83.598705    281.68449 
  295200      1180800    9901.1267   -35056.543    276.77884  0.090030121   -25155.416    1920.8793    55.091885   -1.3066397  -0.75525478    55.112553    81.872478    83.447522    286.27431 
  295400      1181600    9991.1031   -35053.108    279.29406   0.14781114   -25062.005    1826.7691    57.996822    -1.440819  -0.75027981    58.019567    81.792478     83.45058    290.72038 
  295600      1182400    9864.3179   -35018.284    275.74987  0.083780693   -25153.966    1924.5933    56.760325     -1.45291  -0.80713897    56.784654    81.712478    83.335297    295.29664 
  295800      1183200    9777.9983   -34973.342    273.33687  0.068900428   -25195.343    1973.7475    55.228985   -1.2963906  -0.80899891    55.250121    81.632478    83.211453    299.75296 
  296000      1184000    9855.5976    -35029.49    275.50611  0.010757105   -25173.893    1961.5177    51.446092   -1.3134944  -0.76022004    51.468471    81.552478    83.023406    303.99768 
  296200      1184800    9732.3425   -34957.768     272.0606   0.16741169   -25225.426    2014.8837    52.342815   -1.2730565  -0.64592869    52.362278    81.472478    82.968943    308.22344 
  296400      1185600    9912.6543   -34995.792    277.10108   0.27152087   -25083.138    1880.9154    48.616543   -1.1711168  -0.61455306     48.63453    81.392478    82.782436    312.23282 
  296600      1186400    9862.4753   -35031.688    275.69836   0.14735947   -25169.213    1965.6135    52.769103   -1.3043976  -0.64779822    52.789197    81.312478    82.821141    316.29394 
  296800      1187200    9750.9501   -35005.111    272.58076   0.19928129   -25254.161    2051.8778    55.675372   -1.2457275  -0.68515158    55.693522    81.232478    82.824122    320.59196 
  297000      1188000    9792.7448   -34839.365     273.7491  0.043656467    -25046.62     1846.291    57.888671   -1.3452492  -0.77257616    57.909454    81.152478    82.807434    325.17886 
  297200      1188800    9663.9548    -34890.86    270.14887 0.00052508434   -25226.905    2034.3279    56.488151   -1.1884442  -0.75409331    56.505683    81.072478    82.687326    329.80877 
  297400      1189600     9938.774   -34816.616    277.83124   0.16488672   -24877.842      1684.64    58.202757   -1.2418632  -0.71626502     58.22041    80.992478    82.656318    334.28445 
  297600      1190400    9849.5111   -35028.828    275.33596   0.14107574   -25179.317    1984.5799    61.050128   -1.2784362  -0.73325872    61.067915    80.912478    82.657676    339.02836 
  297800      1191200    9946.7968   -34997.109    278.05551   0.24923994   -25050.312    1860.1225    61.279114   -1.2724046  -0.70843011    61.296416    80.832478    82.584204    343.97194 
  298000      1192000    9798.9846   -35015.486    273.92353   0.18085902   -25216.501    2024.1211    65.454973   -1.4844227  -0.75154752    65.476116    80.752478    82.623624     349.0152 
  298200      1192800    9796.4452   -35091.467    273.85254   0.18419972   -25295.022    2110.9121    62.320679   -1.4203205  -0.69789236    62.340768    80.672478    82.454043    354.05266 
  298400      1193600    9930.1256   -35056.289    277.58948   0.23234807   -25126.163    1946.2986    62.346512     -1.47027   -0.7598507    62.368474    80.592478    82.374834    359.01877 
  298600      1194400    9878.8797   -35106.435    276.15694   0.13453827   -25227.555    2058.9802    60.234272   -1.5281176  -0.73719991    60.258162    80.512478     82.23454    363.96996 
  298800      1195200    9750.1253   -35191.676     272.5577  0.032434122   -25441.551    2273.8881    62.909787   -1.6314346  -0.66799837    62.934482    80.432478    82.231006      368.954 
  299000      1196000    9816.1164   -35017.402    274.40244   0.12462606   -25201.285    2035.2269    64.759885   -1.7294344  -0.78956668    64.787785    80.352478    82.203958    373.96375 
  299200      1196800    9888.1176   -34916.044    276.41518   0.10898807   -25027.927    1862.9811    67.024145   -1.7397302  -0.86178364    67.052258    80.272478    82.188657    379.23791 
  299400      1197600    9747.9895   -34894.702      272.498   0.14646175   -25146.712    1984.6682    68.303673   -1.8015715   -0.7381052    68.331415    80.192478    82.145204    384.59437 
  299600      1198400    9661.7183   -34882.444    270.08635   0.18072932   -25220.726    2065.3743    67.375863   -1.7512476  -0.66799354    67.401929    80.112478    82.038647    390.07377 
  299800      1199200    9821.1309   -35120.826    274.54261   0.10543922   -25299.695    2150.7733    66.588065    -1.652241   -0.7129553    66.612375    80.032478    81.936089    395.42885 
  300000      1200000      9948.06   -35083.028    278.09082   0.13601837   -25134.968    1994.1128    65.325226   -1.7291432  -0.60854791    65.350941    79.952478    81.820048    400.66451 
  300200      1200800    9925.9528   -35091.225    277.47283   0.16315523   -25165.272     2025.064    67.194925    -1.728894  -0.66738525    67.220476    79.872478    81.793463    405.97607 
  300400      1201600    9850.0372   -35212.775    275.35067   0.16488944   -25362.738    2219.7713    70.673085   -1.7870267  -0.64228174    70.698592    79.792478    81.812838    411.50061 
  300600      1202400    9847.0419   -35164.926    275.26694   0.21331408   -25317.885    2183.6982     68.68511    -1.674792  -0.74549006     68.70957    79.712478    81.676009    417.18997 
  300800      1203200    9846.7464   -35181.589    275.25867  0.066916338   -25334.842    2202.6155    70.641618   -1.7247689  -0.74278985    70.666574    79.632478    81.651923    422.62024 
  301000      1204000    9945.6128   -35163.227    278.02241    0.1967664   -25217.615    2074.4661    77.876021    -1.939895  -0.80437244    77.904331    79.552478    81.778716    428.56766 
  301200      1204800    9801.0023   -35236.711    273.97993   0.07033223   -25435.709    2307.4097    73.282137   -1.7633554  -0.82076618    73.307944    79.472478    81.567391    434.60189 
  301400      1205600    9779.6086    -35252.07    273.38189   0.19231866   -25472.462    2356.2158    70.320181   -1.7455903  -0.85693108    70.347063    79.392478    81.402794    440.38903 
  301600      1206400    9757.0582    -35211.36    272.75151   0.12441519   -25454.301    2340.8872    72.494431   -1.9190701  -0.96721616    72.526277    79.312478    81.385057    446.20603 
  301800      1207200     9826.391   -34897.648    274.68965  0.077382936   -25071.257    1949.1332    80.598948   -2.1775462   -1.1902046    80.637142    79.232478    81.536796    452.36077 
  302000      1208000    9859.5875   -35046.286    275.61764  0.048904706   -25186.698    2072.3266    80.462322   -2.2457282   -1.1355231    80.501664    79.152478    81.452926    458.81586 
  302200      1208800    9687.4432   -35113.486    270.80547   0.26159013   -25426.043    2322.0239    77.813095   -2.1703675   -1.1295904    77.851553    79.072478    81.297208    465.11042 
  302400      1209600    9859.3089   -35272.603    275.60985   0.19775193   -25413.294    2319.8102    74.116814   -2.1789144   -1.2636987    74.159603    78.992478    81.111724    471.31736 
  302600      1210400    9761.1216   -35145.058     272.8651   0.35007993   -25383.937    2292.1228    74.693009   -2.1574405   -1.1279236    74.732673    78.912478    81.048097    477.32871 
  302800      1211200    9717.3417   -35213.172    271.64126   0.17153927    -25495.83    2410.2269    75.496987   -2.1791031   -1.1772357    75.537603    78.832478    80.991095    483.29096 
  303000      1212000    9830.4192   -35088.004    274.80226  0.019801779   -25257.585    2180.7229    76.392752   -2.2844039   -1.2786397    76.437596    78.752478    80.936809    489.34456 
  303200      1212800     9902.685   -35060.415     276.8224   0.10190079    -25157.73    2089.5903    74.979316   -2.3784183   -1.1208775    75.025403    78.672478    80.816461    495.33568 
  303400      1213600    9925.1877   -35030.994    277.45144   0.12412202   -25105.806    2044.6347    73.812549   -2.2901353  -0.98259558    73.854605    78.592478     80.70301    501.29015 
  303600      1214400    9793.2409   -35023.958    273.76297   0.15986672   -25230.717     2181.285    69.553094   -2.0742861  -0.99880262    69.591186    78.512478    80.501198    507.04442 
  303800      1215200    9761.9876   -35226.748     272.8893   0.18830388    -25464.76    2418.4701     71.15989   -2.0459906   -1.0138792    71.196516    78.432478    80.467064    512.79786 
  304000      1216000    9811.0501   -35354.469    274.26081   0.14814902   -25543.419    2502.6127     71.34768   -1.9503332  -0.94584591    71.380599    78.352478    80.392324    518.38275 
  304200      1216800    9747.7423   -35172.136    272.49109   0.10760031   -25424.394    2377.5715    77.860736   -2.2994656   -1.0872502    77.902271    78.272478    80.498657    524.39994 
  304400      1217600    9802.4684   -35045.562    274.02092   0.10553647   -25243.093    2207.3374    76.056804    -2.240649    -1.001209    76.096389    78.192478    80.367061    530.60652 
  304600      1218400     9886.423   -35177.586    276.36781 -0.021627263   -25291.163    2255.8684    78.888688   -2.3161381  -0.94198188    78.928302    78.112478    80.367972     536.8194 
  304800      1219200    9828.0141   -35134.706    274.73503   0.10009714   -25306.692    2270.3525    81.610887   -2.4143886  -0.99358005    81.652639    78.032478    80.365811    543.34728 
  305000      1220000    9710.9143   -35108.772    271.46159   0.15038366   -25397.857    2351.5132    87.380761    -2.523146   -1.1446696    87.424676    77.952478    80.450726    550.05652 
  305200      1220800    9914.7726   -35072.798     277.1603  0.098699216   -25158.026    2127.0342    84.439274   -2.4366977    -1.023259    84.480623    77.872478     80.28661    556.96131 
  305400      1221600    9856.0236   -35246.339    275.51801  0.057576475   -25390.315    2368.8477    83.880545   -2.4097092  -0.96640038    83.920716    77.792478    80.190613    563.63172 
  305600      1222400    9863.4604   -35190.208     275.7259   0.12015705   -25326.748    2315.2863    82.340936   -2.3521298  -0.99454078    82.380528    77.712478    80.066607    570.38812 
  305800      1223200      9986.84   -35097.697    279.17489   0.19111651   -25110.857    2103.7624    83.257738   -2.4979131  -0.93487583    83.300447    77.632478    80.012891     577.0416 
  306000      1224000    9861.5173   -35141.705    275.67159   0.04932201   -25280.187    2270.7465    87.080415   -2.5390504   -1.0695812    87.123989    77.552478    80.042135    583.72717 
  306200      1224800    9857.9928   -35030.157    275.57306   0.10643394   -25172.164    2178.6919    83.503129    -2.372568   -1.0494582     83.54342    77.472478    79.859833    590.52557 
  306400      1225600    9879.4183   -34965.808      276.172   0.23440329    -25086.39    2090.1956    87.274792   -2.4088249   -1.0898515     87.31483    77.392478    79.887587    597.28455 
  306600      1226400    9875.5254   -35047.334    276.06317   0.23715522   -25171.809    2180.0014    86.970248   -2.4941389   -1.1298054    87.013339    77.312478    79.798973    604.24432 
  306800      1227200    9912.6212   -35188.157    277.10016   0.19646446   -25275.536    2290.2508    86.620468   -2.5281591   -1.0670097    86.663924    77.232478     79.70899    611.19857 
  307000      1228000    9814.5448   -35191.204     274.3585     0.273042    -25376.66    2390.6231    90.412041   -2.5602378   -1.3217591    90.457941    77.152478    79.737391    618.18852 
  307200      1228800    9765.2601   -35207.149    272.98078  0.065470381   -25441.889    2462.8645    91.334629   -2.3619036   -1.3306067    91.374852    77.072478    79.683588    625.42736 
  307400      1229600    9735.7713   -35127.038    272.15645  0.035192636   -25391.267    2417.2801    92.750477   -2.6466814   -1.4248257     92.79917    76.992478    79.644283    632.80261 
  307600      1230400    9880.6865    -35005.48    276.20745   0.10436513   -25124.794     2149.521     95.63047   -2.6560504   -1.4677118    95.678606    76.912478    79.646552    640.36955 
  307800      1231200    9783.9411   -35102.728      273.503   0.15300271   -25318.787    2355.4632    93.213068   -2.5160393   -1.4555397    93.258378    76.832478    79.497403     647.9622 
  308000      1232000    9832.7905   -35085.776    274.86855   0.26608694   -25252.985    2295.0728    93.217126   -2.5485743   -1.4726047    93.263586    76.752478    79.417552    655.57361 
  308200      1232800    9982.7485   -35099.334    279.06052   0.22828293   -25116.586     2168.101    92.343284   -2.3732823   -1.4330015    92.384891    76.672478    79.312446    662.88894 
  308400      1233600    9980.2188   -35258.976     278.9898   0.15580656   -25278.757    2323.7946    98.563098   -2.7513469   -1.5448883    98.613594    76.592478    79.410409    670.54532 
  308600      1234400     9858.661   -35126.808    275.59174   0.17848886   -25268.147     2328.976    96.149753    -2.852355   -1.6744665    96.206626    76.512478    79.261639    678.30917 
  308800      1235200    9880.2344   -35138.331    276.19481  0.087219659   -25258.097    2327.7682     96.19096   -2.7800893   -1.7551025     96.24713    76.432478    79.182796    685.90269 
  309000      1236000    9687.0938   -35127.654     270.7957  0.045690706    -25440.56    2508.1304    99.339184   -2.9883335    -1.973353    99.403711    76.352478    79.192984    693.74343 
  309200      1236800    9724.6192   -35060.184     271.8447   0.12852067   -25335.565    2417.2109    96.271348   -2.8445087   -1.8180208    96.330519    76.272478    79.025179     701.6197 
  309400      1237600    9707.1059   -35046.953    271.35513    0.1574725   -25339.847    2428.7417    95.698626    -2.824398   -1.7740563     95.75673    76.192478    78.928785    709.21586 
  309600      1238400    9865.3128   -35235.213    275.77768    0.2440967     -25369.9    2476.4724    91.822005   -2.7780666   -1.5578222    91.877229    76.112478    78.737942    716.68387 
  309800      1239200    9790.7696   -35101.787    273.69388   0.18575829   -25311.018    2413.4501    96.652301   -2.9535673   -1.4566749     96.70839    76.032478    78.795975    724.22277 
  310000      1240000    9810.4843   -35032.838    274.24499   0.13048138   -25222.354    2330.5289    98.378906   -2.9380929   -1.3588911     98.43215    75.952478    78.765225    732.06469 
  310200      1240800    9825.9795   -35162.651    274.67815   0.13602554   -25336.672    2455.1022    97.114245   -2.8437967   -1.2626446    97.164078    75.872478    78.648995    739.85341 
  310400      1241600    9852.5262   -35145.786    275.42025   0.11854151   -25293.259    2418.3131    96.958126   -2.9722103   -1.1384236    97.010351    75.792478    78.564602    747.57083 
  310600      1242400    9785.9883   -35240.172    273.56023    0.2550322   -25454.183    2582.1873    98.250785   -2.8118662   -1.1125057    98.297309    75.712478    78.521373     755.3615 
  310800      1243200    9755.4197   -35212.002     272.7057     0.210907   -25456.582    2595.0729    97.251375   -2.7178947   -1.0291278    97.294789    75.632478    78.412729    763.18706 
  311000      1244000    9924.4394    -35236.82    277.43053    0.1857299   -25312.381    2446.0461    101.57768   -2.8588629  -0.94913531    101.62234    75.552478    78.456373    771.09699 
  311200      1244800    9870.7065   -35262.737    275.92846   0.24546608    -25392.03    2554.0658    94.181233   -2.4241648   -1.0148563    94.217892    75.472478    78.164818    778.92408 
  311400      1245600    9870.4384   -35315.711    275.92097   0.20982982   -25445.273    2603.9284    97.641304   -2.4628276  -0.90098251    97.676515    75.392478    78.183636    786.59731 
  311600      1246400    9950.5089   -35272.821    278.15928   0.27928134   -25322.312    2495.2998     95.31339   -2.3541454   -1.0721782    95.348486    75.312478     78.03712    794.34929 
  311800      1247200    9904.6928   -35135.923    276.87853   0.26663523    -25231.23    2407.5301    97.293402   -2.4247269   -1.0091248    97.328843    75.232478    78.013702    801.97988 
  312000      1248000    9833.6021   -35246.918    274.89124  0.063425441   -25413.316    2586.5149    102.13029   -2.5896557   -1.2220135    102.17042    75.152478    78.072033    809.84234 
  312200      1248800    9885.2692   -35101.597    276.33555  0.038918567   -25216.328    2393.4369    104.20825   -2.6920054   -1.3334454    104.25155    75.072478    78.051494    818.15688 
  312400      1249600    10026.202   -35028.792    280.27523   0.26515776    -25002.59    2180.4684    105.95692   -2.6370809   -1.4230085    105.99928    74.992478    78.021429    826.51135 
  312600      1250400    9886.4018   -35230.928    276.36721    0.2904553   -25344.526    2519.5423    109.07119   -2.8910511   -1.5306959    109.12023    74.912478    78.030599    835.10986 
  312800      1251200    9746.4539   -35137.819    272.45507   0.22755711   -25391.365    2569.1421    110.87684   -3.0721435   -1.4046661    110.92829    74.832478    78.002258    843.93184 
  313000      1252000    9792.5152   -35069.458    273.74268   0.22941471   -25276.943    2460.8664    111.62882   -3.2924991   -1.8028733    111.69192    74.752478    77.944076    852.74032 
  313200      1252800    9880.2487   -35298.454    276.19521   0.15673122   -25418.206     2610.153    111.92243   -3.3836697   -1.6182851    111.98525    74.672478    77.872457    861.84938 
  313400      1253600    9696.6584    -35341.51    271.06307   0.16558203   -25644.852    2846.0313    112.24449   -3.4641036   -1.4426215     112.3072    74.592478    77.801655    870.84663 
  313600      1254400    9895.6155   -35249.389    276.62478   0.10549056   -25353.774     2578.837    107.57673     -3.41507   -1.4116619    107.64018    74.512478    77.588312    879.74754 
  313800      1255200    9930.8735   -35159.543    277.61039   0.16514246   -25228.669    2451.0964    110.95102   -3.5260158   -1.4812531    111.01691    74.432478     77.60479    888.35081 
  314000      1256000    9890.9819   -35208.892    276.49525     0.210759    -25317.91    2548.5343    111.14437   -3.2958521   -1.3181461    111.20104    74.352478    77.530051    897.27014 
  314200      1256800    9870.3173   -34995.136    275.91758   0.25501232   -25124.819    2356.1486    113.55084   -3.3918282    -1.442288    113.61064    74.272478    77.518896     906.2706 
  314400      1257600    9846.0397   -35188.166    275.23892   0.18244716   -25342.126    2574.3274    115.94012   -3.4369726   -1.5487729    116.00139    74.192478    77.507203     915.4591 
  314600      1258400    9907.3454   -35214.197    276.95268   0.09416014   -25306.851    2546.8247    116.61912   -3.3789165   -1.4796108    116.67744    74.112478    77.446519    924.67448 
  314800      1259200    9721.5248   -35141.678     271.7582   0.14691204   -25420.153    2645.4825    123.89196   -3.3200889   -1.5710054     123.9464    74.032478    77.574204    934.37112 
  315000      1260000     9891.144   -35098.799    276.49978   0.14311536   -25207.655    2459.1943    119.25763   -3.0833923   -1.3949444    119.30564    73.952478    77.361611    944.00339 
  315200      1260800    9878.0466   -35156.849    276.13365   0.19685774   -25278.803     2524.829    123.58384   -3.3480255   -1.5496617    123.63889    73.872478    77.405418    953.72805 
  315400      1261600    9722.6228   -35059.359    271.78889     0.185703   -25336.736    2605.6541    119.08509   -3.2888248   -1.5491882    119.14057    73.792478    77.196894    963.42311 
  315600      1262400    9771.5904    -35133.82    273.15774   0.32835036    -25362.23    2646.5869    117.35839   -3.0247313   -1.5676282    117.40783    73.712478    77.067388    972.97394 
  315800      1263200    9865.7155   -35152.302    275.78894   0.27897668   -25286.587    2587.5985    114.78719   -2.8259194   -1.3941343    114.83044    73.632478    76.913748    982.30475 
  316000      1264000    9891.7883   -35182.622    276.51779   0.30798649   -25290.833    2606.3149    113.24539   -2.7289834   -1.3557957    113.28638    73.552478    76.789632    991.35998 
  316200      1264800    9832.0995   -35084.672    274.84923   0.28555758   -25252.572    2575.3798    113.96397   -2.8598413   -1.4604616     114.0092    73.472478    76.730284    1000.4816 
  316400      1265600    9700.0446   -35100.889    271.15773  0.045045772   -25400.844    2731.7208    114.45636   -2.8053915   -1.5630709     114.5014    73.392478    76.664347     1009.549 
  316600      1266400    9917.7659   -35091.797    277.24397   0.15776661   -25174.031    2505.0035    117.40865   -3.0468499   -1.4836276    117.45755    73.312478    76.668808    1018.9501 
  316800      1267200     9775.802   -35060.284    273.27548   0.18345441   -25284.482    2621.0095    118.99916   -3.0181781   -1.5537373    119.04757    73.232478    76.634237    1028.4657 
  317000      1268000      9799.18   -35068.225    273.92899   0.15520311   -25269.045    2609.4674    120.39498   -3.0745219   -1.4993012    120.44356    73.152478    76.594123    1038.0733 
  317200      1268800    9866.5975   -35019.134     275.8136   0.11420684   -25152.537    2518.7378     115.2355   -3.0555073    -1.534008    115.28621    73.072478     76.36677    1047.5341 
  317400      1269600    9802.3937   -35034.666    274.01883   0.21195421   -25232.272    2606.3872     115.2362   -3.0830077   -1.7991257    115.29147    72.992478     76.28692    1056.7221 
  317600      1270400    9701.1679   -35138.943    271.18913   0.22523758   -25437.775     2819.425    115.57233   -2.7838648   -1.6068494    115.61702    72.912478    76.216222    1065.9436 
  317800      1271200    9950.1659   -35135.644    278.14969   0.27441974   -25185.478    2569.4668    118.18079   -2.9933666   -1.8045107    118.23246    72.832478    76.210948    1075.2343 
  318000      1272000    9815.8092   -35087.396    274.39385  0.076683652   -25271.587    2658.8045    119.83207   -3.0321324   -2.0465276    119.88789    72.752478    76.178246    1084.7894 
  318200      1272800    9843.9753    -35238.77    275.18121   0.20154534   -25394.795    2784.6158    121.85406   -3.0789316   -1.6804615    121.90453    72.672478    76.155865    1094.4271 
  318400      1273600    9856.7998   -35243.189    275.53971   0.24753049    -25386.39    2773.6749    124.74633    -3.050927   -1.8783663    124.79777    72.592478    76.158529    1104.2759 
  318600      1274400    9857.2606   -35082.988    275.55259   0.30978346   -25225.727    2614.8381     127.1501   -3.0789273   -1.8470961    127.20078    72.512478    76.147186    1114.2664 
  318800      1275200    9845.3442   -35102.183    275.21948   0.25358067   -25256.839    2651.4849    129.00466   -3.0921024   -1.7771716    129.05395    72.432478    76.120134     1124.513 
  319000      1276000    9867.2995   -35161.977    275.83322   0.10230378   -25294.678       2693.1    131.25978   -3.2633535   -1.9314952    131.31454    72.352478    76.104722    1134.9245 
  319200      1276800    9934.8954   -35119.402    277.72282   0.14059339   -25184.506    2596.7786    130.18773   -3.0851225   -1.8237622    130.23705    72.272478    75.993937    1145.4314 
  319400      1277600    9889.5476   -35354.293    276.45515   0.22560604   -25464.745     2885.451    129.94369   -3.1742181   -1.7118421    129.99373    72.192478    75.906985    1155.8882 
  319600      1278400    9711.8505   -35166.674    271.48776   0.32417926   -25454.824    2875.4446    132.08567   -3.2548442   -1.9132651    132.13962    72.112478    75.888296    1166.2923 
  319800      1279200    9854.5562   -35271.422    275.47699   0.20450893   -25416.866     2861.298    128.99277   -3.2949239   -1.7803718    129.04713    72.032478    75.719939    1176.6581 
  320000      1280000    9897.7962   -35127.817    276.68574   0.15874391   -25230.021    2684.3707    129.58502   -3.4378578   -1.9279592    129.64495    71.952478     75.65702    1187.0217 
  320200      1280800    9945.3633   -35176.879    278.01544   0.21473455   -25231.516    2697.0428    129.69123   -3.5152993   -2.0074116    129.75439    71.872478    75.580146    1197.5775 
  320400      1281600    9806.8716   -35118.192    274.14401   0.23698839   -25311.321    2775.3566    132.79573   -3.7023183   -1.8508259    132.86022    71.792478    75.588884    1208.0469 
  320600      1282400    9706.3027   -34925.284    271.33267    0.1980068   -25218.982    2683.6021    135.19022   -3.5989291   -1.9718645    135.25249    71.712478    75.577235    1218.7257 
  320800      1283200    9816.7022   -35043.406    274.41881   0.22014957   -25226.703     2695.996    136.61292   -3.7353571   -1.9995479     136.6786    71.632478    75.537981    1229.6257 
  321000      1284000    9843.7419    -35050.68    275.17469   0.26294037   -25206.938    2686.3413    136.63702   -3.5628193   -2.1593879    136.70052    71.552478    75.458607    1240.5837 
  321200      1284800    9967.7444   -35115.699    278.64109   0.26270005   -25147.955    2642.1626    135.40572   -3.3670038    -2.137047    135.46443    71.472478     75.34329    1251.5599 
  321400      1285600     9701.862   -35081.006    271.20854   0.31710246   -25379.144    2877.2852    137.42355   -3.2845339   -1.9422472    137.47652    71.392478    75.320779    1262.4724 
  321600      1286400    9778.6127   -35041.799    273.35405   0.26643939   -25263.187    2776.6334    136.44487   -3.3096927   -1.8936993    136.49814    71.312478    75.212825    1273.3928 
  321800      1287200    9862.4016   -35102.566    275.69631   0.18369073   -25240.165    2783.6565    131.25439   -3.1038878   -1.6978966    131.30206    71.232478    74.984365    1284.0887 
  322000      1288000    9803.1576   -34970.536    274.04018   0.21585125   -25167.378    2714.7834    132.87122   -3.1829488   -1.7847085    132.92132    71.152478     74.95063    1294.7471 
  322200      1288800    9790.0596   -35151.497    273.67404   0.26190427   -25361.437    2897.1094    138.00815   -3.3000859   -1.5831106    138.05668    71.072478    75.017354    1305.6782 
  322400      1289600    9828.4467   -35258.337    274.74712   0.35585676    -25429.89    2964.7196    140.77835   -3.1826416   -1.8917175    140.82702    70.992478    75.016507    1316.7381 
  322600      1290400    9889.6352   -35176.952     276.4576   0.22290283   -25287.317    2834.2871    140.71431   -3.4061029   -1.8503054    140.76769    70.912478    74.934812    1327.8754 
  322800      1291200    9650.1361   -35245.291    269.76258   0.25388928   -25595.155    3124.6155    148.29388   -3.7855136   -1.7365825    148.35236    70.832478    75.071517    1339.3895 
  323000      1292000    9754.1138   -35040.584     272.6692   0.23091811   -25286.471    2816.2999    151.43917   -3.9060646   -1.6514796    151.49854    70.752478    75.081408    1351.4393 
  323200      1292800    9891.4385   -34999.537    276.50801   0.28691216   -25108.098    2665.3957    147.93406    -3.823473   -1.7802369    147.99417    70.672478    74.901283    1363.5044 
  323400      1293600    9839.4779   -34972.952    275.05549   0.18705397   -25133.474    2701.9141     147.9492   -3.8335371   -1.9472975    148.01167    70.592478    74.821783    1375.3687 
  323600      1294400    9923.6719    -34979.68    277.40907   0.19783351   -25056.008    2625.1945    150.75655   -3.7935792   -2.0686043    150.81845    70.512478    74.821977    1387.3481 
  323800      1295200    9929.1881   -35120.732    277.56327   0.28444792   -25191.544    2786.2887    147.52315   -3.7899042   -2.0993677    147.58676    70.432478    74.649643    1399.3118 
  324000      1296000    9745.9406    -34992.27    272.44072   0.25234037   -25246.329    2849.6871    148.08375   -3.6032498   -2.3754496    148.14663    70.352478    74.585639    1411.1038 
  324200      1296800    9815.2056   -35193.685    274.37697    0.3588528    -25378.48    2992.7385    147.34266   -3.2821425   -2.6367008     147.4028    70.272478    74.484386    1422.8873 
  324400      1297600    9936.7869    -35388.64    277.77569   0.26433235   -25451.853    3049.3135    153.82127   -3.3894387   -2.7808697    153.88374    70.192478    74.589556    1434.8859 
  324600      1298400     9721.095   -35232.059    271.74618   0.32250918   -25510.964    3145.1256    148.26554   -3.1532257   -2.7888684    148.32528    70.112478    74.350743    1446.8687 
  324800      1299200    9953.0908   -35094.164    278.23146   0.24152775   -25141.073    2773.6013    152.20112   -3.3367786   -2.7150296     152.2619    70.032478    74.383218    1458.9201 
  325000      1300000    9808.5129    -34912.06    274.18989    0.1895112   -25103.547    2744.5764    153.51003    -3.430987   -2.8204917    153.57427    69.952478    74.340714    1471.1637 
  325200      1300800    9867.1695   -35004.154    275.82959   0.23966924   -25136.985     2780.649    155.61973   -3.5603605   -2.9433557    155.68828    69.872478    74.321114    1483.4985 
  325400      1301600    9981.4952   -35018.363    279.02548   0.28639125   -25036.867    2690.6283    155.54098   -3.7666737   -2.5415382    155.60734    69.792478    74.238802    1495.7817 
  325600      1302400     9783.656   -35012.494    273.49503   0.31578384   -25228.838    2891.7655    155.70527   -3.7480847   -2.7594413    155.77482    69.712478    74.163587    1508.3272 
  325800      1303200    9765.7977   -35076.956    272.99581   0.43344947   -25311.158    2979.0488    157.19915     -4.08467   -2.5135564     157.2723    69.632478    74.126372     1520.855 
  326000      1304000     9841.429   -35200.038    275.11003   0.31032303   -25358.609    3045.2221    155.97624   -4.0987406   -2.3997555    156.04854    69.552478    74.011408    1533.4335 
  326200      1304800    9908.0916   -35034.238    276.97354   0.21237722   -25126.146    2843.2966    152.54096   -3.8642238   -2.5585635    152.61135    69.472478    73.833202    1545.7273 
  326400      1305600    9815.4502   -34999.119    274.38381   0.23006499   -25183.669     2870.198    162.31488   -3.9023537   -2.5268626    162.38145    69.392478    74.032348    1558.2652 
  326600      1306400    9987.0886   -34990.156    279.18184   0.22469319   -25003.067    2679.5557    167.33719   -3.8569789   -2.7125255    167.40361    69.312478    74.095838    1571.5994 
  326800      1307200    9840.1032   -35088.762    275.07297   0.31267752   -25248.659     2947.656    164.96238   -3.5692415    -2.575279    165.02108    69.232478    73.947766      1584.91 
  327000      1308000    9878.2486   -35003.856     276.1393   0.42818757   -25125.607     2830.251    166.31696   -3.7288941   -2.5578861    166.37842    69.152478    73.906547    1598.2099 
  327200      1308800    9798.2561   -35078.322    273.90316   0.26225522   -25280.066     3011.507    163.69382   -3.7556591   -2.2720594    163.75266    69.072478    73.751525     1611.354 
  327400      1309600    9874.6315   -34961.355    276.03818   0.34075979   -25086.723    2845.4214    160.70096    -3.751172   -2.2589965    160.76061    68.992478    73.586038    1624.3393 
  327600      1310400    9696.8318   -34992.266    271.06792   0.31577376   -25295.435    3065.9132    160.86677   -3.7531092   -1.9357438    160.92219    68.912478    73.510655    1637.2262 
  327800      1311200    9882.3782   -34995.035    276.25474   0.32732094   -25112.657    2905.9912     158.2705   -3.8518244   -1.9596876    158.32949    68.832478    73.356578    1649.9911 
  328000      1312000    9843.9576   -34975.703    275.18072   0.34263396   -25131.746     2920.038    162.09926    -4.158371   -1.9920545    162.16482    68.752478    73.386159     1662.693 
  328200      1312800    9737.2851   -35039.239    272.19876   0.21273489   -25301.954    3102.3832    162.37626   -4.2844039   -1.9276107    162.44421    68.672478    73.314141    1675.7351 
  328400      1313600    9943.5975    -35008.77    277.96608   0.31313044   -25065.173    2859.4665    166.76683   -4.4096618   -1.9713534    166.83677    68.592478    73.359643     1689.033 
  328600      1314400    9874.3759   -35075.168    276.03104    0.3406306   -25200.792    2971.6816    174.06151   -4.8118583   -1.8780186    174.13814    68.512478    73.488253    1702.6041 
  328800      1315200    9694.6571   -35118.678    271.00713   0.22020201   -25424.021      3209.63    173.82413   -4.9009984    -1.925357    173.90387    68.432478     73.40156    1716.5409 
  329000      1316000    9787.4518   -35119.214    273.60114   0.29693901   -25331.762      3111.96    177.76873   -5.0218798   -2.2338082    177.85367    68.352478    73.434412     1730.521 
  329200      1316800     9952.115   -34928.505    278.20418   0.30360783    -24976.39     2764.909    179.25646   -4.7604318   -2.1517345    179.33257    68.272478    73.396666    1744.9364 
  329400      1317600    9790.3219    -34995.65    273.68137   0.24308771   -25205.328    3000.1768    181.17244   -4.7037381    -2.336228    181.24855    68.192478    73.371408     1759.386 
  329600      1318400    9826.5668   -34946.165    274.69457   0.18157312   -25119.598    2927.9163    181.36526   -4.6143216   -2.2796959    181.43827    68.112478    73.296829     1773.873 
  329800      1319200     9856.461   -34856.351    275.53024   0.37944116    -24999.89     2856.101    174.25997   -4.3693067   -2.1231638    174.32767    68.032478    73.013669    1788.1209 
  330000      1320000    9926.9458   -34930.204    277.50059   0.37264371   -25003.258    2846.2664    179.40946   -4.5567955   -2.3122633    179.48222    67.952478    73.080941    1802.3092 
  330200      1320800    9873.4775   -34972.059    276.00592   0.33759142   -25098.581    2976.4119    175.40893   -4.3758086   -2.0494743    175.47547    67.872478    72.886463    1816.4969 
  330400      1321600    9901.9639   -34940.805    276.80224   0.27223874   -25038.841    2908.7154    180.10592   -4.1496285   -1.7442462    180.16216    67.792478    72.940368    1830.7506 
  330600      1322400    9902.0286    -34854.55    276.80405    0.3170396   -24952.522    2840.5695     179.1867   -4.0940439   -1.8350035    179.24285    67.712478    72.834102    1845.0815 
  330800      1323200    9806.2836   -35040.816    274.12757   0.31238828   -25234.532    3124.8843    181.24983   -4.3059087   -1.8749373    181.31066    67.632478    72.813183    1859.4785 
  331000      1324000    9869.0846   -34894.851    275.88312   0.41257312   -25025.767    2951.4469    176.76828   -4.2879613   -1.8141728    176.82958    67.552478    72.605152    1873.8905 
  331200      1324800    9849.2286   -34975.851    275.32806   0.33203561   -25126.623    3061.2848    177.91686    -4.555764   -2.0777597    177.98731    67.472478     72.55823    1888.0217 
  331400      1325600     9818.657   -34966.744    274.47346   0.35279824   -25148.087    3085.9673    180.33794    -4.552416   -2.3637386    180.41087    67.392478    72.547474    1902.3745 
  331600      1326400    9779.0658   -34896.463    273.36671   0.32401232   -25117.397    3070.9776    180.33563   -4.7808612   -2.7278182    180.41961    67.312478    72.467724    1916.8404 
  331800      1327200    9796.2315   -34979.067    273.84657   0.23576444   -25182.836    3153.6301    179.74028   -4.4831048   -2.7710852    179.81754    67.232478    72.370522    1931.2452 
  332000      1328000    9777.7714   -34936.608    273.33053   0.29404695   -25158.837     3115.995    185.01555   -4.6567548   -2.7181002     185.0941    67.152478    72.441281    1945.8236 
  332200      1328800    9761.2486   -34868.246    272.86865   0.29603074   -25106.998    3084.5994    183.98511   -4.3373582   -2.6040005    184.05465    67.072478    72.331582    1960.5886 
  332400      1329600     9870.075   -34912.647    275.91081   0.28144589   -25042.572    3038.2293    183.21029   -3.9700905   -2.6021308    183.27178    66.992478    72.229215    1975.2346 
  332600      1330400    9784.9523   -35107.306    273.53127   0.24222017   -25322.354    3316.3968    185.98361   -4.1674259   -2.3989426    186.04576    66.912478    72.228471    1989.9132 
  332800      1331200    9677.8981   -35024.928    270.53864   0.27044903    -25347.03    3348.6966    187.22002       -4.071   -2.4937788    187.28088    66.832478     72.18376    2004.9291 
  333000      1332000    9720.0259    -35062.72    271.71629   0.30767317   -25342.694    3356.7315    187.91341   -3.7019676   -2.2890378    187.96381    66.752478    72.123273    2019.8721 
  333200      1332800    9801.5263   -35008.201    273.99458   0.27998688   -25206.675    3248.0618    185.80939   -3.4404821    -2.497603    185.85802    66.672478    71.983107    2034.8335 
  333400      1333600    9682.6892   -34862.682    270.67258   0.26788259   -25179.993    3233.9232     186.2035   -3.3489855   -2.0963499    186.24542    66.592478    71.914176     2049.624 
  333600      1334400    9827.2612   -35054.685    274.71398    0.2339333   -25227.424    3283.4878    188.48122   -3.2564419   -2.1163809    188.52123    66.512478    71.899199    2064.5419 
  333800      1335200    9839.4009   -35066.254    275.05334   0.37420081   -25226.853    3286.5422    190.40411   -3.3463352   -2.2207766    190.44647    66.432478    71.874206    2079.7044 
  334000      1336000     9858.357   -35025.659    275.58324   0.33922116   -25167.302     3222.404    193.96659    -3.100907   -2.7414274    194.01074    66.352478    71.896042    2095.1729 
  334200      1336800    9900.7488   -34988.062    276.76827   0.29725164   -25087.314    3152.6729    194.97505   -2.6379744   -2.5242442    195.00924    66.272478    71.844571    2110.7415 
  334400      1337600    9940.3642   -34936.027    277.87569   0.31820321   -24995.663    3064.6952    197.50379    -2.455677   -2.2347123     197.5317    66.192478    71.836641    2126.4395 
  334600      1338400    9780.6383   -34838.566    273.41067   0.32830597   -25057.928    3152.4065    195.79285   -2.6036374   -2.5711078    195.82704    66.112478    71.707936    2141.9994 
  334800      1339200    9917.8034   -34928.475    277.24502   0.25211725   -25010.672    3097.8594    199.90882   -2.4634077   -2.7001637    199.94223    66.032478    71.745513    2157.9275 
  335000      1340000    9918.3459   -34939.413    277.26019   0.34392212   -25021.067    3159.0632    193.47767   -2.5265674   -2.2691845    193.50747    65.952478    71.481663    2173.6423 
  335200      1340800    9784.8076   -34966.828    273.52722   0.35622186    -25182.02    3316.9172    196.55685   -2.8319232   -2.6182541    196.59469    65.872478    71.489869     2189.263 
  335400      1341600    9867.9369   -35006.254    275.85104   0.30259381   -25138.317      3280.26    198.24043   -2.8889411   -2.5176467    198.27747    65.792478    71.457948    2205.0018 
  335600      1342400    9679.4666   -34835.069    270.58249   0.19230854   -25155.602    3306.8224    199.73445   -3.2288627   -2.2861479    199.77363    65.712478    71.420696      2220.99 
  335800      1343200    9825.2963   -34688.813    274.65905    0.3096695   -24863.517    3055.8846    195.48303   -3.2703681   -2.6262518    195.52802    65.632478    71.219393    2236.7956 
  336000      1344000    9865.3265   -34740.354    275.77807   0.32823854   -24875.027    3048.1259    201.59084   -3.8530964   -2.7458483    201.64635    65.552478    71.314202    2252.6054 
  336200      1344800    9891.9908   -34812.054    276.52345   0.34423468   -24920.063    3117.3671    199.71467   -3.7638458   -2.6844893    199.76818    65.472478     71.18054      2268.63 
  336400      1345600    9852.9921   -34977.292    275.43327   0.31386784     -25124.3    3344.9191    198.11042   -3.5487199   -3.0019268    198.16494    65.392478    71.054734    2284.5984 
  336600      1346400    9913.3596   -34900.471     277.1208   0.31244161   -24987.112    3194.5141    203.25233   -3.8957165   -3.1499209    203.31406    65.312478    71.121851    2300.6454 
  336800      1347200    9795.4873   -34861.019    273.82577   0.24557172   -25065.531    3318.2327    198.73147    -3.716507    -3.004345    198.78892    65.232478    70.912561    2316.5808 
  337000      1348000    9900.7589   -34699.097    276.76856   0.20751494   -24798.338    3043.9257    202.96527   -3.8154235   -2.9568038    203.02266    65.152478    70.953525    2332.7937 
  337200      1348800    9982.9224   -34796.286    279.06538   0.31828774   -24813.364    3048.4493    207.34169   -3.7828623   -3.4886426    207.40553    65.072478     70.99875    2349.1505 
  337400      1349600    10012.381   -34923.151    279.88888   0.36667933    -24910.77    3142.0942    210.20149   -3.7457663   -3.1210621    210.25803    64.992478     71.00025    2365.9667 
  337600      1350400    9810.4537   -34816.126    274.24414   0.46652384   -25005.673    3263.0892    208.71874   -3.7315601   -3.2901727    208.77802    64.912478    70.877964    2382.5443 
  337800      1351200    9900.6061   -34784.344    276.76428   0.28017986   -24883.738    3142.1428    211.77535    -3.255005   -3.4409808    211.82831    64.832478    70.885116    2399.4652 
  338000      1352000    9777.7272   -34829.364    273.32929    0.2819621   -25051.637    3319.8296    213.00818    -3.345324   -2.9934225    213.05548    64.752478    70.840177    2416.4952 
  338200      1352800    9882.7836   -34857.067    276.26607   0.38707468   -24974.284    3241.7444    215.45159   -3.1317751   -2.9391041     215.4944    64.672478    70.829861    2433.6246 
  338400      1353600    9741.6203   -34858.735    272.31995   0.40464873   -25117.114    3394.7824    216.57325   -3.2402041   -2.7543981      216.615    64.592478    70.781878    2450.9124 
  338600      1354400    9795.6792   -34825.502    273.83113   0.24521956   -25029.823    3338.0456    214.45061   -3.0739263   -2.5540901    214.48784    64.512478    70.641102    2468.1718 
  338800      1355200    9839.4382   -34688.988    275.05438   0.31358691   -24849.549    3155.9328    217.70324   -3.3631772   -2.5505033    217.74415    64.432478     70.65414    2485.5095 
  339000      1356000    9698.5947   -34875.516     271.1172   0.33877062   -25176.922    3487.5364    219.78289   -3.4403395   -2.6283276    219.82553    64.352478    70.633607    2502.9738 
  339200      1356800    9775.8242   -34850.165     273.2761   0.35977937   -25074.341    3367.7126    224.96972   -3.4762379   -2.6360333    225.01202    64.272478    70.701793    2520.8328 
  339400      1357600    9857.9696   -34834.012    275.57241   0.35814431   -24976.043    3321.1767    219.54982   -3.2072845   -2.5455054      219.588    64.192478    70.466821    2538.5555 
  339600      1358400    9771.8675   -34779.017    273.16549   0.29408436    -25007.15    3374.4555    219.01854   -3.1501696   -2.6139915    219.05679    64.112478    70.371643     2556.091 
  339800      1359200    9693.5496   -34813.143    270.97617   0.21816311   -25119.593    3495.1763    220.80801   -2.9919993   -2.6278921    220.84392    64.032478    70.342704    2573.7408 
  340000      1360000     9848.323   -34635.443    275.30275   0.39167744    -24787.12    3194.3403    218.57204   -2.6967387   -2.8285181    218.60698    63.952478    70.198792     2591.435 
  340200      1360800    9897.2843   -34867.491    276.67143   0.40294376   -24970.207    3371.2792    221.82881   -2.6126721   -3.0340661    221.86495    63.872478    70.211877     2608.952 
  340400      1361600    9823.8593   -34805.931    274.61888   0.41785675   -24982.071     3395.581    222.36957   -2.8468426   -3.3545202    222.41309    63.792478    70.147538    2626.7757 
  340600      1362400    9864.1486     -34787.3    275.74514    0.4629286   -24923.152    3335.7357     225.2182   -3.1600134   -3.7848338    225.27217    63.712478    70.149226    2644.6039 
  340800      1363200      9834.52   -34800.969     274.9169   0.29194178   -24966.449    3380.3344    228.24288   -3.0850845   -3.4491729    228.28979    63.632478    70.155444    2662.6887 
  341000      1364000    9830.3421   -34664.187    274.80011   0.34771353   -24833.845    3267.3289    228.29117   -2.8738624   -3.9743023    228.34385    63.552478    70.076988    2680.9422 
  341200      1364800    9640.8378   -34661.088    269.50265   0.28102915    -25020.25    3455.8308    230.67798   -3.2722842   -4.0322835    230.73642    63.472478    70.065347    2699.3315 
  341400      1365600    9804.2277   -34910.612     274.0701   0.34724474   -25106.384    3541.7226     233.4275    -4.226402   -4.0337025     233.5006    63.392478    70.064324      2717.97 
  341600      1366400    9944.7563   -34654.789    277.99847   0.42663702   -24710.033    3160.9957    233.69962   -3.5960085   -3.9374499    233.76045    63.312478    69.991748    2736.5393 
  341800      1367200    9806.8415    -34712.26    274.14316   0.42123586   -24905.418    3389.2813     231.6777   -4.1480026    -3.860238    231.74699    63.232478     69.85422    2755.2522 
  342000      1368000    9898.7556   -34671.028    276.71255   0.38207167   -24772.272    3255.6949    234.35824   -3.9335022   -3.5647934    234.41836    63.152478    69.850545    2773.8972 
  342200      1368800    9869.9109   -34777.179    275.90622   0.40625967   -24907.268    3429.3212    231.21049   -3.6969449   -3.4138342    231.26524    63.072478    69.680456    2792.5199 
  342400      1369600    9784.9956   -34725.674    273.53248   0.38812043   -24940.679    3469.1799    233.05258   -3.6666443   -2.9550206    233.10015    62.992478    69.652882    2811.0911 
  342600      1370400     9866.223   -34721.773    275.80313   0.34933707    -24855.55    3415.0568    231.40191   -3.2530244   -2.6648817    231.44012    62.912478    69.525453    2829.7318 
  342800      1371200    9873.0838   -34736.577    275.99492   0.29980882   -24863.493    3440.3185    231.83655   -3.2188756   -3.1003461    231.87963    62.832478     69.45801    2848.2273 
  343000      1372000      9998.06   -34779.873    279.48854   0.31422837   -24781.813    3348.4738    236.08993   -3.4764333   -2.9231537    236.13362    62.752478    69.499553    2866.9632 
  343200      1372800    9830.6887   -34647.319    274.80979   0.41424539   -24816.631     3426.989    232.10756   -3.4985296   -2.9543316    232.15272    62.672478    69.305813    2885.7572 
  343400      1373600    9891.4458   -34621.674    276.50821   0.31750191   -24730.228    3368.0098    230.52906   -3.1977477   -2.7173609    230.56725    62.592478    69.180514    2904.1962 
  343600      1374400    9879.6788   -34577.744    276.17928   0.53454164   -24698.065    3335.2799    233.51343   -3.4459108    -2.918322    233.55709    62.512478    69.185938    2922.6971 
  343800      1375200    9807.6572   -34575.591    274.16597   0.35251096   -24767.934    3438.2764    231.26884   -3.6502371   -2.8047683    231.31465    62.432478    69.041868    2941.3772 
  344000      1376000    9720.7113   -34760.373    271.73545   0.35280409   -25039.662    3721.9308    232.37956   -3.2078248   -3.0462507    232.42166    62.352478    68.993497    2959.9366 
  344200      1376800     9830.937   -34665.685    274.81673   0.33849554   -24834.748    3492.8494    238.58767   -3.4078509   -3.6534618    238.63997    62.272478    69.091163    2978.6974 
  344400      1377600    9855.0986   -34597.889    275.49216   0.43184569    -24742.79    3415.6081    239.26555   -3.7301894   -3.7000946    239.32323    62.192478    69.030685      2997.91 
  344600      1378400    9793.5936   -34570.731    273.77283   0.48946484   -24777.138    3462.1888    240.38218   -3.7259053   -4.0009229    240.44434    62.112478    68.982716    3017.0291 
  344800      1379200    9885.1572    -34609.58    276.33242   0.33899494   -24724.423     3435.113    239.49188   -3.9494744   -4.3407404    239.56377    62.032478    68.877557    3036.3266 
  345000      1380000    9798.8086    -34673.63    273.91861   0.40594021   -24874.821    3596.1823    240.79144   -4.2497919   -3.9459562    240.86126    61.952478    68.834628    3055.4831 
  345200      1380800    9761.0659   -34571.864    272.86354   0.37035879   -24810.798    3554.5075    240.24035   -4.1313969    -3.992981    240.30905    61.872478    68.738851    3074.6789 
  345400      1381600    9772.2054   -34563.824    273.17493   0.21507172   -24791.619     3564.852    238.57158   -3.8351141   -4.0038784      238.636    61.792478    68.611049    3093.8582 
  345600      1382400    9859.6015   -34449.198    275.61803   0.47577277   -24589.597    3396.8613    236.40473   -4.1558517   -3.9960584    236.47502    61.712478    68.469307    3112.8231 
  345800      1383200    9709.3842   -34507.868    271.41881   0.44007784   -24798.484    3623.0896    236.80863   -4.0751166   -3.9418552    236.87649    61.632478    68.400778    3131.7586 
  346000      1384000    9977.9671   -34520.305    278.92685   0.34552333   -24542.337    3367.5668    239.71698   -4.2815078   -4.3528657    239.79472    61.552478    68.404156    3150.7917 
  346200      1384800     9839.636   -34372.513    275.05991   0.35332846   -24532.876    3368.4886    240.87871   -4.3897257   -4.0393274    240.95256    61.472478    68.357237    3169.9256 
  346400      1385600    9763.8447   -34368.623    272.94122   0.38560899   -24604.779    3450.1709    242.16098   -4.2783422   -3.8055832    242.22867    61.392478    68.313697    3189.2969 
  346600      1386400    9789.7306   -34645.345    273.66484   0.32004667   -24855.615    3667.1877    249.61264   -4.3425021   -4.1123901    249.68428    61.312478    68.446715    3209.0182 
  346800      1387200    9801.3096   -34449.109    273.98852   0.41137533     -24647.8    3496.0804    247.26282   -3.9449431   -3.6673859    247.32148    61.232478    68.299206    3228.9347 
  347000      1388000    9888.8298   -34459.649    276.43509   0.39501559   -24570.819    3413.8711    250.73113   -4.4350691   -3.1631063     250.7903    61.152478    68.318315    3248.7578 
  347200      1388800    9786.6992   -34573.449     273.5801   0.41751065    -24786.75    3655.6745    250.13819   -4.9422852   -3.1508097    250.20685    61.072478    68.221645    3268.7957 
  347400      1389600    9845.8002   -34233.523    275.23222    0.4504618   -24387.722    3286.5707    248.72034   -4.6902717   -3.1172252    248.78409    60.992478    68.100995    3288.8734 
  347600      1390400     9847.783   -34522.038    275.28765   0.33852497   -24674.255    3573.8099    251.50864   -4.3339451   -3.0716482    251.56473    60.912478    68.100442    3308.8202 
  347800      1391200    9868.9818   -34464.372    275.88025   0.36814444    -24595.39    3517.3966    251.17885   -4.5480283   -2.5091716    251.23255    60.832478    68.010951    3329.0265 
  348000      1392000    9898.0309   -34388.673     276.6923   0.36931972   -24490.642    3411.8297    253.65321   -4.5621717   -2.0593343    253.70259    60.752478    68.001524    3349.1746 
  348200      1392800    9861.2041   -34576.703    275.66283   0.45671409   -24715.498    3645.0319    255.09006   -4.6104249   -2.4959886    255.14393    60.672478    67.962705    3369.6036 
  348400      1393600    9973.4002   -34607.365    278.79919   0.36851991   -24633.965    3558.1663    258.69532   -4.4939329   -3.0191506    258.75197    60.592478    67.985791     3390.133 
  348600      1394400    9843.7509   -34432.444    275.17494   0.31607542   -24588.693    3538.7489    258.39895   -4.1348468   -3.3150543     258.4533    60.512478    67.897258    3410.7096 
  348800      1395200     9866.171   -34385.073    275.80168   0.35761351   -24518.902     3492.619    258.14033   -3.8960241   -3.1261534    258.18865    60.432478    67.809697    3431.4217 
  349000      1396000     9738.177   -34399.812     272.2237   0.33728679   -24661.635    3655.7182    258.07394   -4.3310339   -2.8654239    258.12618    60.352478    67.727912    3452.1121 
  349200      1396800    9928.6137    -34408.95    277.54722   0.37261919   -24480.337    3515.2341    255.10086   -3.7127537   -3.0361571    255.14594    60.272478    67.562762    3472.5927 
  349400      1397600    9809.2857   -34602.159    274.21149   0.37190289   -24792.873    3827.0225    257.54663   -3.1014206    -3.288545     257.5863    60.192478    67.552487    3493.0577 
  349600      1398400    9818.6444   -34517.313     274.4731   0.46808844   -24698.669    3737.1148    259.54217   -3.1173359   -3.1800412    259.58037    60.112478     67.52946    3513.8136 
  349800      1399200     9811.966   -34596.699    274.28641   0.42305518   -24784.733    3848.3871    258.93114   -2.7564692   -3.1751756    258.96527    60.032478    67.431886    3534.5797 
  350000      1400000    9819.0546    -34499.64    274.48457    0.4145776   -24680.585    3765.7884    259.01333   -2.6150582   -3.6145496    259.05174    59.952478    67.354356    3555.2528 
  350200      1400800    9976.0042   -34390.834    278.87198   0.39100835    -24414.83    3552.2175    255.03524   -2.5497403   -3.2622896    255.06885    59.872478    67.160559    3575.7649 
  350400      1401600    9754.3774   -34239.117    272.67657   0.35653744    -24484.74    3628.8711    257.01633   -2.4442106   -2.4858364    257.03997    59.792478    67.136877    3596.2872 
  350600      1402400    9960.4438   -34441.861      278.437   0.42247315   -24481.417    3630.2942    258.85466   -2.6244616   -3.2779042    258.88871    59.712478    67.109698    3616.9404 
  350800      1403200    9916.2443   -34460.069    277.20144   0.37297381   -24543.824    3647.5559    267.76655   -2.6563869   -3.1082629    267.79777    59.632478    67.284243     3637.993 
  351000      1404000    9818.5633   -34449.589    274.47084   0.33144191   -24631.026    3723.3631    272.03677   -3.2933728   -3.5070333     272.0793    59.552478    67.326572    3659.5477 
  351200      1404800    9647.9123    -34293.45    269.70041   0.37659769   -24645.537    3731.2701      275.699   -3.5718161   -3.6473362    275.74625    59.472478    67.351342    3681.4638 
  351400      1405600    9790.2951   -34444.343    273.68062   0.41780668   -24654.048    3745.0872    277.80233   -3.3157202   -3.4936923    277.84409    59.392478    67.331281    3703.4853 
  351600      1406400    9744.6777    -34387.52    272.40542   0.37878741   -24642.842    3694.4671    285.59814   -3.5858002   -3.8830688    285.64705    59.312478    67.474222    3726.0029 
  351800      1407200    9883.7456   -34240.862    276.29296   0.27333227   -24357.117    3462.4287    281.84447   -3.5258843   -4.0869718    281.89615    59.232478    67.287054    3748.7017 
  352000      1408000    9949.1342   -34250.482    278.12085   0.40888833   -24301.348    3457.2255    278.36003   -3.4788139   -3.8289212     278.4081    59.152478    67.107395    3771.0897 
  352200      1408800    9800.9586   -34304.336    273.97871   0.44532826   -24503.377    3692.3346    276.73443   -3.3852108   -3.6036416    276.77859    59.072478    66.980838    3793.2377 
  352400      1409600    9848.7181   -34211.409    275.31379   0.49622719   -24362.691    3607.0465    272.25788     -2.88023   -3.4985715    272.29559    58.992478    66.772752    3815.1953 
  352600      1410400    9828.2435   -34476.561    274.74144   0.34584449   -24648.317    3932.4444    269.81371    -3.043431   -3.4624992    269.85308    58.912478    66.622966    3836.8017 
  352800      1411200    9827.7117   -34183.743    274.72657   0.52334356   -24356.031    3629.7993    274.04249   -3.4615718   -3.5475473    274.08731    58.832478    66.663944    3858.7012 
  353000      1412000    9735.4566   -34167.233    272.14765   0.43347111   -24431.777    3701.5524    277.72139   -3.1168615   -3.3366764    277.75892    58.752478    66.688847    3880.7283 
  353200      1412800    9803.3406   -34223.696     274.0453   0.43219799   -24420.355     3691.419    280.36812   -2.4970139   -3.4937032      280.401    58.672478    66.684335    3903.0265 
  353400      1413600    9863.1451   -34233.523    275.71709    0.4692176   -24370.378    3658.4472     280.8755   -2.6323235   -4.0443079    280.91695    58.592478    66.619077      3925.51 
  353600      1414400    9883.2292   -34346.983    276.27853   0.42841479   -24463.753    3720.9931    287.17303   -3.2340831    -3.506009    287.21264    58.512478    66.718954    3948.3156 
  353800      1415200    9769.2751   -34269.445    273.09302   0.52206198    -24500.17    3769.6817    288.51157   -2.9367856    -3.707891    288.55034    58.432478    66.677173    3971.3461 
  354000      1416000    9894.3196   -34275.085    276.58855   0.45199475   -24380.765    3688.1719    286.77114   -3.4166705   -3.8563514    286.81741    58.352478    66.547661    3994.2585 
  354200      1416800    9852.6414   -34440.181    275.42346   0.32720023    -24587.54    3911.8409     287.7243   -3.1092121   -4.1125799    287.77048    58.272478    66.494892    4017.3563 
  354400      1417600    9920.0988   -34228.043    277.30919   0.28915995   -24307.944    3634.5463    290.44377   -3.0766488   -4.2886514    290.49173    58.192478    66.492642    4040.4406 
  354600      1418400    9838.3715   -34305.779    275.02456   0.37463313   -24467.408     3778.622    294.91607   -4.1268554   -4.8605507    294.98499    58.112478    66.541021    4063.8658 
  354800      1419200    9833.7076   -34227.613    274.89419   0.37775648   -24393.905    3750.6727    291.92787   -3.4604339     -4.85433    291.98873    58.032478    66.375413    4087.2921 
  355000      1420000    9763.2934   -34257.864    272.92581   0.54838581   -24494.571    3881.6796    290.78806   -3.3207283   -4.6143278    290.84363    57.952478    66.262696    4110.6977 
  355200      1420800    9903.4683   -34425.795    276.84429    0.4896913   -24522.326    3922.3115    291.94058   -3.8708335   -4.3952878    291.99932    57.872478    66.215716    4133.8516 
  355400      1421600    9869.0882   -34238.066    275.88322   0.50597562   -24368.978    3747.1018    297.67906   -3.7876691   -5.1872165    297.74834    57.792478    66.299974    4157.4665 
  355600      1422400    9735.7531   -34088.573    272.15594   0.36598179   -24352.819    3789.7725    293.92249   -3.5228961   -4.4463558    293.97723    57.712478    66.112227    4181.2252 
  355800      1423200    9870.5515   -34132.714    275.92413   0.35557603   -24262.163    3731.1491    292.94175   -3.2926922   -4.5124053      292.995    57.632478    66.004164    4204.7467 
  356000      1424000    9873.1956    -34185.33    275.99804   0.49326288   -24312.135    3763.6015    297.29364   -3.3258197    -5.063906    297.35536    57.552478    66.048745     4228.373 
  356200      1424800    9769.0304   -34258.177    273.08618   0.57924252   -24489.146    3949.4637    298.76892   -3.0955783   -4.5910557    298.82023    57.472478    66.010599     4252.334 
  356400      1425600    9885.3287    -34408.85    276.33722   0.54931203   -24523.521    4010.5678    298.43829   -3.2352667    -5.458442    298.50573    57.392478    65.921613    4276.0938 
  356600      1426400    9942.9258   -34324.864     277.9473   0.47602116   -24381.938    3885.7903    299.46064   -4.1879256   -5.0717674    299.53286    57.312478     65.87096    4300.0153 
  356800      1427200    9890.3695   -33989.276    276.47813   0.54017011   -24098.906    3643.1797    297.77158   -4.1281626   -4.4760289    297.83383    57.232478    65.742416    4323.8909 
  357000      1428000    9874.5852   -34159.767    276.03689   0.37945635   -24285.182    3820.7522    301.72845   -4.2508796   -4.8742262    301.79776    57.152478    65.775671    4347.9587 
  357200      1428800    9925.4179   -34087.068    277.45788    0.4342374    -24161.65    3712.5501     302.7417   -4.3255297   -4.4913476    302.80591    57.072478    65.724475    4372.0548 
  357400      1429600    9870.7657   -34096.073    275.93012   0.48598264   -24225.307    3793.8477    303.24598   -4.3569321    -4.542944     303.3113    56.992478    65.658915    4396.2963 
  357600      1430400    9760.3259    -34270.44    272.84285   0.49416642   -24510.114     4067.267    307.15854   -4.1157547   -4.2027018    307.21486    56.912478    65.690446    4420.6767 
  357800      1431200    9730.5048   -34220.855    272.00922   0.47187736    -24490.35    4075.7057    306.68614   -4.2925204   -4.2694379    306.74589    56.832478    65.597046    4445.1574 
  358000      1432000    9874.3115   -34264.638    276.02924   0.42678379   -24390.326    3959.6108    311.40642   -4.6034019   -4.0286945     311.4665    56.752478    65.651921      4469.84 
  358200      1432800    9870.4064   -34340.542    275.92007   0.43783141   -24470.135    4062.3422    311.84903   -4.3570803   -3.4849525    311.89894    56.672478    65.584276    4494.8221 
  358400      1433600    9897.1007   -34194.468    276.66629   0.39967964   -24297.367    3924.6081     310.8089   -4.4992404   -3.3018472      310.859    56.592478    65.474564    4519.6981 
  358600      1434400      9763.82   -34260.859    272.94053   0.44314917   -24497.039    4122.9036    313.76187   -4.1454009   -3.1860325    313.80542    56.512478    65.478747    4544.7034 
  358800      1435200     9872.956   -34210.162    275.99135   0.45036698   -24337.206    3952.9453    317.54413   -4.4911158   -3.8665129    317.59943    56.432478    65.507147    4569.9076 
  359000      1436000    9836.0001   -34037.334    274.95827   0.51652905   -24201.334    3829.0358    318.97263   -5.0100104   -3.9408265    319.03631    56.352478    65.468201    4595.4336 
  359200      1436800    9894.8462   -34119.052    276.60327   0.51847512   -24224.205     3897.927    316.48575    -4.882122   -3.7259813    316.54534    56.272478    65.317031    4620.7881 
  359400      1437600    9996.5847   -34096.811     279.4473   0.50422026   -24100.226    3806.2845    315.74862    -4.870215   -3.3006022    315.80342    56.192478    65.215833    4646.0986 
  359600      1438400    9882.1805   -34180.166    276.24921   0.37172115   -24297.985    4020.0893    316.87847   -5.0783605   -4.1792925    316.94671    56.112478    65.168498     4671.403 
  359800      1439200    9994.6178   -33981.063    279.39231   0.48185151   -23986.445    3780.0614    311.67355   -4.7269429   -4.0907194    311.73623    56.032478    64.939627    4696.6098 
  360000      1440000    9833.7928   -33951.963    274.89657   0.50669192    -24118.17     3957.516    309.32497     -4.74277   -4.2462579    309.39046    55.952478    64.792606    4721.3813 
  360200      1440800    9829.6204   -34089.356    274.77993   0.57043044   -24259.735    4104.5046    311.34711   -5.0928066   -4.2192216    311.41734    55.872478    64.770516    4746.2034 
  360400      1441600    9866.8408   -34174.562     275.8204   0.54637632   -24307.721    4200.2994    308.65784   -6.0134328   -4.1887754    308.74483    55.792478    64.614159    4770.9394 
  360600      1442400    9892.4441    -33921.65    276.53612   0.39432389   -24029.206    3925.5227    311.24022   -6.1517265   -3.2181182    311.31764    55.712478    64.607668    4795.7782 
  360800      1443200    9904.9184    -33910.52    276.88483   0.39296548   -24005.602    3934.3167    310.37788    -5.893298   -2.6933185    310.44551    55.632478     64.50275    4820.6496 
  361000      1444000    9912.9344   -33989.775    277.10891   0.41326999   -24076.841    4005.4642    313.17468   -5.0697674   -2.9832515    313.22992    55.552478    64.502304    4845.6367 
  361200      1444800    9814.9749   -34218.609    274.37052   0.34357571   -24403.634    4339.5576    315.12085   -5.3119679   -3.2106543    315.18198    55.472478    64.478077    4870.8382 
  361400      1445600    9795.5162   -34068.914    273.82657    0.4622218   -24273.398    4215.8193     317.0739   -4.6013173   -3.4796804    317.12638    55.392478    64.453632    4896.2354 
  361600      1446400    9728.4642   -34022.199    271.95218   0.47670559   -24293.735    4260.2125     317.0127   -3.8244154   -2.7304872    317.04753    55.312478    64.371379    4921.5517 
  361800      1447200    9882.5253   -34027.963    276.25885   0.51695493   -24145.438    4110.6357    319.98049   -3.7144627   -3.0339577    320.01643    55.232478    64.376205    4947.0151 
  362000      1448000    9792.8178   -33941.415    273.75114   0.36405483   -24148.597    4147.0157    319.36927   -4.4745601    -2.945628     319.4142    55.152478    64.278998    4972.6962 
  362200      1448800    9722.9925   -34027.897    271.79922   0.24835848   -24304.904    4327.1375    319.91141   -5.0733102   -3.3569924    319.96924    55.072478    64.214856     4998.298 
  362400      1449600    9724.6005   -33771.411    271.84418   0.25219162    -24046.81    4082.3623    321.36591   -4.9970097   -2.1640814    321.41204    54.992478    64.176079    5023.9997 
  362600      1450400    9800.9435   -33859.051    273.97829   0.42004698   -24058.108    4153.4585    317.29144   -4.4410462   -2.1646083    317.32991    54.912478    63.979447    5049.5951 
  362800      1451200    9814.6278   -33783.518    274.36082   0.59348608   -23968.891    4067.6755    319.17255   -4.5700206   -1.8314365    319.21052    54.832478    63.953179    5074.9949 
  363000      1452000    9739.0932    -33906.79    272.24931    0.6077623   -24167.697    4238.0072     325.0047   -5.4104599   -1.5718312    325.05354    54.752478    64.040122    5100.7176 
  363200      1452800    9900.3365   -33981.325    276.75675   0.43940967   -24080.988    4196.0484    323.33797    -5.139819    -1.485646    323.38223    54.672478     63.91237    5126.6198 
  363400      1453600    9810.0204   -33900.168    274.23203   0.30372744   -24090.148     4216.579    325.15242   -5.1215776   -1.9805798    325.19878    54.592478    63.884272    5152.6337 
  363600      1454400    9774.4762   -33784.522    273.23841   0.38656099   -24010.045    4139.9528    327.64389   -5.9242159   -1.6404176    327.70155    54.512478     63.87578    5178.7115 
  363800      1455200    9698.4561   -33856.728    271.11333   0.36715525   -24158.272    4273.9065     331.9048   -5.6195204  -0.75987985    331.95324    54.432478    63.917256     5205.145 
  364000      1456000    9818.8694   -33950.192    274.47939     0.508735   -24131.322    4232.6578    335.97667    -5.719526   -2.0943254    336.03188    54.352478    63.953789    5231.8885 
  364200      1456800    9891.2154   -33789.656    276.50177   0.62118158    -23898.44    4038.4662    334.64584   -5.7112989   -2.0024025    334.70057    54.272478    63.835751     5258.678 
  364400      1457600    9968.3443   -33932.067    278.65786   0.58747542   -23963.723    4110.3551    336.79136    -5.122863   -1.8752491    336.83554    54.192478     63.81675    5285.5172 
  364600      1458400    9726.5475    -33955.24     271.8986   0.51402466   -24228.692    4370.8589    340.21701   -5.3851486   -2.4562164     340.2685    54.112478    63.834835    5312.6476 
  364800      1459200    9810.6957   -33835.434     274.2509   0.46561134   -24024.738     4202.023    339.42247   -5.1708023   -2.4680656    339.47083    54.032478    63.732045    5339.7373 
  365000      1460000    9934.9184   -33807.032    277.72346    0.4216558   -23872.114    4065.8848    340.43786   -6.2680012   -2.2182827    340.50278    53.952478    63.681529    5366.9365 
  365200      1460800    9804.8762   -33828.932    274.08822   0.52972232   -24024.056    4260.3361    338.81649    -6.067588   -2.3092185    338.87868    53.872478    63.555126    5394.1248 
  365400      1461600    9835.0048   -33637.166    274.93045   0.50542253   -23802.161     4072.939     337.8996   -5.6176326   -2.8184553    337.95804    53.792478    63.448822    5421.1024 
  365600      1462400    9841.8595   -33737.747    275.12207   0.52458951   -23895.887    4172.2667    340.33281   -5.6595773   -3.5201268    340.39807    53.712478    63.438537    5448.2969 
  365800      1463200    9925.8211   -33826.315    277.46915   0.46344103   -23900.494    4171.7044    343.72102   -6.0998802   -3.6658315    343.79469    53.632478    63.455583    5475.6035 
  366000      1464000    9852.8116   -33776.011    275.42822   0.44060194     -23923.2    4216.2309    344.25323    -5.204408   -3.7053855    344.31251    53.552478    63.390378     5503.229 
  366200      1464800    9827.1992   -33630.496    274.71225   0.49609187   -23803.297    4095.3312     347.0192   -5.1595368   -3.8893737    347.07934    53.472478    63.389431    5530.8062 
  366400      1465600    9733.2379    -33837.61    272.08563   0.46856014   -24104.372     4403.741    349.11495   -4.4145291    -3.271787    349.15819    53.392478    63.368826    5558.6526 
  366600      1466400    9880.5381   -33819.949     276.2033   0.51452718    -23939.41    4222.7038    353.42807   -4.5911461   -3.1017372     353.4715    53.312478    63.412064    5586.7289 
  366800      1467200    9807.3374   -33907.351    274.15703   0.47540303   -24100.014    4435.0946    350.79447   -4.8974354   -3.0946029     350.8423    53.232478    63.256944    5614.8669 
  367000      1468000    9872.2367   -33805.284    275.97124   0.54359866   -23933.047    4277.2771     352.5673   -5.0118266   -2.9499409    352.61526    53.152478      63.2276    5642.9807 
  367200      1468800    9781.5277   -33715.445    273.43553   0.56789401   -23933.917    4324.0362    351.00841   -4.4755644   -2.7952084    351.04807    53.072478    63.102823    5671.1009 
  367400      1469600    9785.0304   -33574.999    273.53345   0.50875133   -23789.969    4228.6116    349.22724   -4.6593766   -3.6167076    349.27705    52.992478    62.972222    5699.1858 
  367600      1470400    9968.9569   -33597.163    278.67498   0.44193609   -23628.206    4049.3877    353.93035   -4.5770538   -3.6590534    353.97886    52.912478     63.02656    5727.3413 
  367800      1471200    9690.5118   -33640.717    270.89125   0.41439337   -23950.205    4382.8686    355.46351   -4.4805637   -3.1071334    355.50533    52.832478    62.990173    5755.6888 
  368000      1472000    9843.6733   -33693.734    275.17277   0.52934975   -23850.061    4326.3935    353.79751   -4.9463803   -3.4512951    353.84892    52.752478    62.862847    5784.0836 
  368200      1472800    9802.7929   -33770.691    274.02999    0.5698987   -23967.898      4395.76     361.2108   -4.5473767   -2.7334971    361.24976    52.672478      62.9943    5812.6622 
  368400      1473600    9851.5416   -33849.801    275.39272   0.54170794   -23998.259    4495.6696    357.12208   -4.4253599   -2.6360898    357.15923    52.592478    62.797427    5841.4458 
  368600      1474400    9881.1375   -33838.064    276.22005   0.62807937   -23956.926    4405.7467    364.58671   -4.3031883   -2.1543309    364.61846    52.512478    62.930548    5870.3757 
  368800      1475200    9872.5127   -33700.292    275.97895   0.62039766   -23827.779    4261.0728    369.01924   -4.7323948   -1.9577578    369.05478    52.432478      62.9773    5899.7181 
  369000      1476000    9765.3166   -33697.421    272.98236   0.57035237   -23932.105      4412.96    367.53846   -4.4684875   -2.4048103    367.57349    52.352478    62.854978    5929.1442 
  369200      1476800    9853.6808   -33538.645    275.45252    0.4667525   -23684.964    4155.2318    371.58093   -4.7828591    -1.916085    371.61665    52.272478    62.890496    5958.7049 
  369400      1477600    9912.6673   -33620.158    277.10145   0.54897673   -23707.491    4174.3399    374.72915   -4.8898277    -1.622007    374.76456    52.192478    62.900437    5988.6885 
  369600      1478400    9945.1201   -33640.258    278.00864   0.44045975   -23695.138    4208.7811    372.84481   -4.8767494    -1.812372    372.88111    52.112478    62.766624    6018.6266 
  369800      1479200    9894.1103   -33739.678     276.5827   0.62434333   -23845.568    4407.3268    370.72573   -5.8560517   -2.4499458    370.78008    52.032478    62.626595    6048.3573 
  370000      1480000    9763.9424   -33656.218    272.94395   0.62723252   -23892.276    4453.6035    373.48858   -5.2671843   -2.6302317    373.53498    51.952478    62.625306     6077.987 
  370200      1480800    9809.0274   -33505.094    274.20427   0.58779813   -23696.066    4349.4374    367.66288   -5.4194935   -3.0863921    367.71578    51.872478    62.379043    6107.7217 
  370400      1481600    9907.3721   -33524.458    276.95342   0.53948368   -23617.086     4222.115    375.24543    -5.793097   -3.0784406    375.30277    51.792478    62.515814    6137.4322 
  370600      1482400    9842.9485   -33476.828    275.15251   0.53262937   -23633.879     4267.992    375.51555   -6.2817019    -3.265173    375.58228    51.712478      62.4438    6167.5653 
  370800      1483200    9812.0909   -33430.101    274.28991   0.44599327    -23618.01    4250.9502    378.41863   -5.8844811   -3.7671227    378.48313    51.632478    62.446682     6197.652 
  371000      1484000    9807.7911   -33485.664    274.16971   0.53972814   -23677.873     4330.941    379.27014    -5.882312   -2.6582663    379.32507    51.552478    62.390737    6227.9959 
  371200      1484800    9686.8538   -33550.328    270.78899   0.54803235   -23863.474    4564.4264    377.47312   -5.3045882   -2.4773654    377.51852    51.472478    62.259121     6258.348 
  371400      1485600    9867.0715   -33578.627    275.82685   0.60337356   -23711.555    4420.3179    379.52227   -5.3677918     -2.69914    379.56983    51.392478     62.23773    6288.6583 
  371600      1486400    9824.3056   -33610.871    274.63136   0.57251644   -23786.566    4497.0126    382.25898   -4.7063992   -2.1965566    382.29427    51.312478    62.235571    6319.0882 
  371800      1487200    9896.4032   -33476.748     276.6468   0.55223674   -23580.345    4335.6451    381.10939   -4.5437425   -2.3512686    381.14373    51.232478    62.122699    6349.7446 
  372000      1488000    9822.5461    -33308.81    274.58217   0.39921134   -23486.264    4254.1028    382.78135    -5.278876   -2.5031823    382.82593    51.152478    62.090762     6380.299 
  372200      1488800    9875.9226    -33396.12    276.07427   0.48824669   -23520.198    4303.5961    384.02098   -5.3673444   -2.4752767    384.06646    51.072478    62.046205    6410.9479 
  372400      1489600    9817.1537   -33542.451    274.43143   0.52027056   -23725.297    4536.2494    384.20355   -5.0522501   -1.6147186    384.24016    50.992478    61.971168     6441.851 
  372600      1490400    9914.8716   -33357.392    277.16307   0.71176554    -23442.52    4334.3276    379.48814   -5.6220851   -1.7501689    379.53382    50.912478    61.756701     6472.427 
  372800      1491200    9814.2938   -33402.779    274.35149   0.62341148   -23588.485    4511.3674    379.70832    -5.140989   -1.6649441    379.74677    50.832478    61.682786    6502.7362 
  373000      1492000    9814.1633   -33262.825    274.34784   0.52136267   -23448.662    4329.8901    386.40203   -5.0148921   -1.8534772    386.43902    50.752478    61.793993    6533.4399 
  373200      1492800    9979.9064    -33341.88    278.98107   0.51554354   -23361.973    4284.3408    385.43148   -5.2821649   -2.4023296    385.47516    50.672478    61.686454    6564.3524 
  373400      1493600    9854.0716   -33422.875    275.46345   0.45593944   -23568.803    4491.4965     388.0657   -5.6996444    -1.725639    388.11139    50.592478    61.681775    6595.2652 
  373600      1494400    9816.0139   -33483.959    274.39957    0.6759769   -23667.945    4563.8167    393.03676   -6.5388113   -2.2944062    393.09785    50.512478    61.744245    6626.5363 
  373800      1495200    9785.9338   -33548.356     273.5587   0.67684096   -23762.422    4693.1713    392.54331   -6.6091884   -2.6392019    392.60782    50.432478    61.650244    6657.9157 
  374000      1496000    9752.3445   -33498.418    272.61974    0.6269025   -23746.073    4684.9879    394.57625   -6.7806346    -2.477487    394.64229    50.352478    61.628372    6689.3166 
  374200      1496800    9749.6084   -33506.166    272.54325   0.49896395   -23756.557    4712.6069    396.20306     -6.86024   -2.3086298    396.26918    50.272478    61.594855    6721.0221 
  374400      1497600    9862.8196   -33386.008    275.70799   0.42292201   -23523.188     4515.397    396.02868   -6.2666034   -2.5823967    396.08667    50.192478     61.50964      6752.69 
  374600      1498400    9923.3471   -33323.284    277.39999   0.42172642   -23399.937    4406.5414    397.37217   -6.1282715   -2.4337643    397.42687    50.112478    61.467932    6784.4802 
  374800      1499200    9823.9532   -33569.602    274.62151   0.57399358   -23745.649    4764.0253    398.67342    -6.093424   -3.6050816    398.73628    50.032478    61.425343    6816.3103 
  375000      1500000    9778.4878    -33624.67    273.35056    0.7317251   -23846.182    4841.3027    403.28855   -4.9463478   -2.9841732    403.32993    49.952478     61.47659    6848.3172 
  375200      1500800    9895.1364   -33584.387    276.61138   0.66644243   -23689.251    4692.4971     405.4866   -5.3813901   -3.3058518    405.53578    49.872478    61.459615    6880.6619 
  375400      1501600     9800.441   -33308.333    273.96424   0.54109492   -23507.892    4620.4532    399.21198    -5.594979   -3.2067092    399.26406    49.792478    61.200423    6912.8837 
  375600      1502400     9722.202   -33326.981    271.77713   0.44110185   -23604.779    4733.8046     400.8847   -5.4384151   -3.6815158    400.93849    49.712478    61.168263    6944.8823 
  375800      1503200    9834.5413   -33204.695    274.91749   0.42363523   -23370.154     4538.868    400.00653   -6.3207724   -3.6265564     400.0729    49.632478    61.063532    6976.9441 
  376000      1504000    9911.5753   -33270.633    277.07092   0.62862014   -23359.058    4545.7229    400.97889    -5.618033   -3.4692839    401.03325    49.552478    61.010971     7009.026 
  376200      1504800    9693.5793   -33394.194      270.977   0.57957064   -23700.614    4936.4927    399.21838   -5.5450434   -3.7353318    399.27436    49.472478    60.880717    7040.9349 
  376400      1505600    9809.6832   -33409.195     274.2226   0.74071691   -23599.512    4852.2751    400.44032   -5.8815011   -3.3378834    400.49742    49.392478    60.835662    7072.8421 
  376600      1506400    9811.8114   -33416.311    274.28209   0.64046806     -23604.5    4815.6142    406.89787   -5.5478374   -3.7045499    406.95255    49.312478    60.940094    7105.2413 
  376800      1507200    9828.5809   -33329.733    274.75087   0.47156067   -23501.152    4759.2985    405.95727   -6.0379063   -3.8786239     406.0207    49.232478    60.833469      7137.81 
  377000      1508000    9844.8694   -33263.981     275.2062   0.33708481   -23419.111    4678.3316    408.90891   -5.6883873   -4.1832117    408.96987    49.152478    60.837731    7170.4264 
  377200      1508800    9971.5023   -33292.184    278.74614   0.49771734   -23320.681    4597.6712    410.07394   -6.2605802   -3.8718599       410.14    49.072478    60.791164    7203.1974 
  377400      1509600    9810.0968       -33314    274.23416   0.55422712   -23503.904    4756.3293     414.6653   -6.8705899   -3.2282242    414.73478    48.992478    60.842443    7236.2153 
  377600      1510400    9767.0816   -33334.397     273.0317    0.6239349   -23567.315    4860.0681    413.96269   -6.4980222   -3.8599366    414.03168    48.912478    60.742355    7269.4757 
  377800      1511200    9796.5973   -33202.469    273.85679   0.63102687   -23405.872    4730.9204    414.10946   -7.0260109   -4.5309767    414.19384    48.832478    60.666988    7302.5496 
  378000      1512000    9957.6232   -33239.894    278.35816   0.57477813   -23282.271    4630.2434     415.1819   -7.5052884   -4.0058546    415.26905    48.752478    60.617708    7335.8726 
  378200      1512800    9906.3124   -33056.565     276.9238   0.57839238   -23150.253    4549.6583    413.79061   -7.5057913   -3.7508734    413.87567    48.672478    60.497897    7369.0165 
  378400      1513600    9819.8539    -33109.35    274.50691   0.56873492   -23289.496    4710.0676    414.81162   -7.7036269   -3.4927038    414.89785    48.592478    60.447102    7402.0476 
  378600      1514400    9872.5568    -33234.37    275.98019   0.59242753   -23361.813    4771.6774     418.3272   -8.3906357   -3.5924313    418.42676    48.512478    60.467928    7435.4172 
  378800      1515200    9874.4615   -33156.037    276.03343    0.6770958   -23281.576    4712.3135    419.26338   -8.2060703   -3.9780081    419.36255    48.432478    60.414665    7468.8439 
  379000      1516000    9845.2526   -33175.559    275.21692   0.63016468   -23330.307    4771.2927    421.25343   -8.2264513   -3.1864836     421.3458    48.352478    60.391329     7502.504 
  379200      1516800    9901.5305   -33082.966    276.79013   0.56493545   -23181.436    4676.4507    419.70547    -8.402469   -2.2006785    419.79534    48.272478     60.26703    7536.1564 
  379400      1517600    9825.8922   -33179.958    274.67571   0.50137985   -23354.066    4789.7998    427.45434   -7.8694746   -2.3855668    427.53343    48.192478    60.408119    7570.0583 
  379600      1518400    9945.1346   -33111.248    278.00905   0.57639921   -23166.114    4635.3834    427.35069   -7.4977249   -2.3038171    427.42267    48.112478    60.324954    7604.2393 
  379800      1519200     9858.435   -33113.228    275.58542   0.66760403   -23254.793     4782.799    425.07855   -7.5148039   -3.3869255    425.15846    48.032478    60.180263    7638.3225 
  380000      1520000    9923.8101   -33219.043    277.41294   0.74330116   -23295.233    4842.8982     426.0855   -6.8628021   -3.9038972    426.15864    47.952478    60.128839    7672.4167 
  380200      1520800    9972.2996   -33124.833    278.76842   0.70842239   -23152.533    4695.0314    429.45621   -7.0771064   -3.5258591    429.52899    47.872478    60.145135    7706.6161 
  380400      1521600    9937.3537   -33079.554    277.79154   0.57173591     -23142.2    4730.6053    428.77556   -7.3198116   -3.7494423    428.85443    47.792478    60.045862     7740.845 
  380600      1522400    9858.1859   -33063.203    275.57846   0.54146939   -23205.017    4786.9886    432.35061    -7.090322   -2.9483534     432.4188    47.712478    60.067701       7775.4 
  380800      1523200    9817.9857   -33032.352    274.45469   0.47209404   -23214.366    4751.4824    438.60831    -7.019113   -2.8234502    438.67355    47.632478    60.166408    7810.2514 
  381000      1524000    9816.0711   -33069.948    274.40117   0.63794861   -23253.877    4810.8477    439.56718   -8.3564601   -2.0904985    439.65157    47.552478    60.114351    7845.3468 
  381200      1524800    9814.5977   -33165.042    274.35998   0.71768403   -23350.445     4914.643    441.73556   -8.1463279   -1.8090179    441.81438    47.472478    60.096146    7880.6516 
  381400      1525600    9780.5395   -33121.371    273.40791   0.52565307   -23340.832    4942.1953     441.7961   -8.5570054   -2.1110566      441.884    47.392478    60.018135    7916.1223 
  381600      1526400    9933.0408   -33074.382    277.67097   0.54197186   -23141.341    4777.8424    441.90094   -9.8192284   -2.2338543    442.01567    47.312478    59.941897    7951.4183 
  381800      1527200    9944.1885   -32875.749     277.9826   0.68034818    -22931.56    4607.5902    441.64645   -9.8903279   -2.1078583     441.7622    47.232478    59.854655    7986.6811 
  382000      1528000    9760.9071   -33000.835     272.8591   0.63533997   -23239.928    4927.9324    443.36827   -9.5213196   -2.8087727    443.47939    47.152478    59.823718    8022.1444 
  382200      1528800    9834.7915   -32945.695    274.92448   0.65325697   -23110.903    4823.3415     444.0493   -9.8820315    -2.121848    444.16431    47.072478    59.763287    8057.6482 
  382400      1529600    9839.0685   -32917.894    275.04405   0.66897532   -23078.826    4818.3495    444.61936   -9.2099732   -2.5744652    444.72219    46.992478    59.699226    8093.1834 
  382600      1530400    9913.0653   -33022.972    277.11257   0.66844742   -23109.907     4860.453    446.60075   -9.3002348   -2.4225819    446.70414    46.912478    59.675853    8128.9665 
  382800      1531200    9838.7166    -32948.12    275.03421   0.75695282   -23109.404    4873.6991    448.31369   -8.9782347   -2.0554515    448.40829    46.832478    59.644543    8164.7071 
  383000      1532000    9933.8457   -33015.125    277.69347   0.62371839    -23081.28    4841.4875    451.59028   -9.6370797   -2.3395099    451.69916    46.752478    59.658568    8200.7852 
  383200      1532800    9784.1591   -32853.819    273.50909   0.53357508    -23069.66    4816.3204    455.44138   -9.2298324   -2.3974825     455.5412    46.672478    59.688341    8237.0471 
  383400      1533600    9954.7418   -32805.365    278.27761   0.54085619   -22850.623    4621.5087    456.49964   -8.9520277   -1.5492596    456.59003    46.592478    59.638308    8273.6002 
  383600      1534400    9800.9726   -32770.279     273.9791   0.56704992   -22969.306    4761.5092    457.61857     -8.98462   -2.2573552    457.71233    46.512478    59.590373    8310.3038 
  383800      1535200    9774.9607   -32848.817    273.25196   0.66333971   -23073.856    4822.9253    463.66367   -8.7308899   -1.7322955     463.7491    46.432478    59.682852     8347.074 
  384000      1536000    9800.0634   -32936.543    273.95369    0.7560869   -23136.479    4921.9388    463.54086   -9.8798422   -1.5111801    463.64859    46.352478    59.599981    8384.2127 
  384200      1536800    9773.1987   -32807.227     273.2027   0.72364986   -23034.028    4846.8256    464.21518    -8.939706   -1.9924446    464.30552    46.272478     59.53875    8421.3686 
  384400      1537600    9931.0917   -32886.407    277.61649   0.66038566   -22955.315    4804.5573    464.38454   -9.8558742   -1.6378522      464.492    46.192478    59.464078    8458.5106 
  384600      1538400    9768.8142   -32930.476    273.08014   0.54236448   -23161.662    5021.3212    466.55161   -9.1301874  -0.86468874    466.64174    46.112478    59.445499     8495.765 
  384800      1539200    9780.6599   -32609.248    273.41128   0.62567471   -22828.588     4748.425    464.81774   -9.9537499   -1.6922472    464.92738    46.032478    59.316517    8533.0395 
  385000      1540000    9803.6486   -32870.065    274.05391   0.54983362   -23066.417    4993.3031     467.0505   -9.5635468   -1.0106295     467.1495    45.952478    59.300007    8570.3499 
  385200      1540800    9912.0101   -32767.937    277.08308   0.72848024   -22855.927    4764.2319    471.26197   -9.9376138   -1.2302016    471.36834    45.872478    59.340545     8607.932 
  385400      1541600    9918.6719   -32628.656     277.2693   0.75228952   -22709.984    4669.2087    470.28291   -9.7041627    -1.228622    470.38462    45.792478    59.232439    8645.4644 
  385600      1542400    9932.8367   -32692.361    277.66527   0.73222068   -22759.525    4697.0488    474.69872   -9.3870916   -1.6919677    474.79454    45.712478    59.278436    8683.3036 
  385800      1543200    9808.4945   -32711.566    274.18937     0.571029   -22903.071    4896.2531    473.40184     -9.24966   -1.5910608    473.49487    45.632478    59.161303     8721.278 
  386000      1544000    9812.2073   -32785.522    274.29316   0.62986637   -22973.315    4967.7857    476.10524   -9.6893354    -2.135387    476.20861    45.552478    59.158838    8759.2222 
  386200      1544800    9922.5492   -32760.427    277.37769   0.67473277   -22837.878    4878.8455    475.29815   -10.374467   -1.6438287     475.4142    45.472478    59.056141    8797.2239 
  386400      1545600    9929.4974   -32936.161    277.57192   0.62458506   -23006.664     5048.595    477.78629   -10.830083   -2.5065971    477.91559    45.392478    59.047609    8835.3684 
  386600      1546400    9717.8052   -32894.086    271.65422   0.75465981   -23176.281    5210.5858    481.03933   -10.632232   -2.1536865    481.16164    45.312478    59.060353    8873.6917 
  386800      1547200    9906.3174    -32701.26    276.92394   0.64410144   -22794.943    4883.5497    480.04664   -10.463624   -1.9990289    480.16483    45.232478    58.951873    8912.1652 
  387000      1548000    9826.1292   -32820.347    274.68234   0.66391939   -22994.218    5121.5373    480.23883   -10.999297   -1.8084114    480.36818    45.152478    58.877683    8950.6436 
  387200      1548800    9951.7567   -32653.564    278.19416    0.6213438   -22701.807    4819.4599    483.76689   -10.350935   -2.8666174     483.8861    45.072478    58.898195    8989.2125 
  387400      1549600    9709.7682   -32619.962    271.42955   0.63474707   -22910.194    5023.5055     486.8168   -11.519878   -2.9099908    486.96178    44.992478    58.906072    9027.9992 
  387600      1550400    9794.1156   -32747.628    273.78742   0.65131351   -22953.513    5029.8713    492.20353   -11.518486   -3.2225631    492.34884    44.912478    58.979988    9067.2088 
  387800      1551200    9782.7305   -32731.933    273.46916   0.71230089   -22949.202    5075.5148    491.37998   -11.467902   -3.0273299     491.5231    44.832478    58.876395    9106.4169 
  388000      1552000    9879.2248   -32735.551    276.16658   0.68007453   -22856.326    5007.3131    492.40397   -11.025729   -4.1203608    492.54463    44.752478    58.825582    9145.7411 
  388200      1552800    9892.0732   -32708.099    276.52575   0.63381608   -22816.026    4948.5665    496.51182    -10.61096    -3.955092    496.64094    44.672478    58.862619    9185.2698 
  388400      1553600    9878.5881   -32766.494    276.14879   0.61383903   -22887.906    5105.8736    493.35771   -10.468424   -4.1417293    493.48614    44.592478    58.692482    9224.9833 
  388600      1554400    9747.8595   -32642.802    272.49436   0.66035492   -22894.943    5139.5586    494.18521   -10.332095   -4.7334467    494.31587    44.512478    58.636189    9264.4019 
  388800      1555200     9806.287    -32549.06    274.12766   0.70356309   -22742.773     4992.581    496.47696   -10.939784   -5.3168529    496.62594    44.432478    58.622191    9304.0956 
  389000      1556000    9638.3657   -32367.769    269.43354   0.69567092   -22729.403    4985.6688     498.9043    -10.90957   -5.3256454    499.05199    44.352478    58.611506     9343.982 
  389200      1556800    9745.8457   -32571.544    272.43807   0.56730785   -22825.698    5083.2883    501.86993    -11.18092    -4.428195    502.01399    44.272478    58.616135    9383.9913 
  389400      1557600     9755.479   -32553.695    272.70736   0.53351227   -22798.216    5045.6381    505.36481   -12.775175   -3.7027461    505.53982    44.192478    58.636873    9424.3519 
  389600      1558400    9724.4992   -32582.173    271.84134   0.76433705   -22857.674    5109.8373    507.65141   -12.801584   -2.6346478    507.81963    44.112478     58.62201    9464.9376 
  389800      1559200    9794.9989   -32720.433    273.81211   0.72929588   -22925.434    5176.0224    510.51581   -13.156084   -2.4983165    510.69141    44.032478    58.624061    9505.5845 
  390000      1560000    9761.6628   -32625.796    272.88022   0.76105927   -22864.133    5171.3984    509.40639   -12.973145   -2.0954019    509.57586    43.952478    58.512188    9546.3101 
  390200      1560800    9884.8375   -32408.747    276.32349   0.75209052    -22523.91      4887.32    508.43769    -12.42119   -0.9653496    508.59031    43.872478     58.40403    9587.0947 
  390400      1561600    9792.3451   -32390.767    273.73793   0.61331215   -22598.422    4992.9006    509.13845    -12.32326  -0.60944477    509.28792    43.792478    58.343962    9627.7862 
  390600      1562400    9768.2714   -32535.484    273.06496   0.57635935   -22767.213    5190.6596    509.96545   -12.113316  -0.34170845    510.10941    43.712478    58.287433    9668.6317 
  390800      1563200    9900.0246   -32554.805    276.74803   0.73336793   -22654.781    5107.3308    510.71668   -12.117488  -0.11566265    510.86043    43.632478     58.22889    9709.5115 
  391000      1564000    9775.5423   -32601.118    273.26821   0.66688686   -22825.576    5292.3168    512.40372   -11.688676  -0.97612914    512.53795    43.552478    58.196819    9750.5741 
  391200      1564800    9875.6356   -32575.738    276.06625   0.79825563   -22700.102    5167.1133    515.10079   -10.836685   -1.3941936    515.21666    43.472478    58.193354    9791.8081 
  391400      1565600     9764.208   -32574.464    272.95137   0.69093163   -22810.256    5253.4202    519.47486   -11.789833   -2.4700273    519.61451    43.392478    58.239007    9833.2157 
  391600      1566400    9833.8058   -32399.932    274.89693   0.69431942   -22566.126    5011.7608    522.31842   -12.024112   -2.6599305    522.46358    43.312478    58.240409    9875.0031 
  391800      1567200    9853.1857   -32517.445    275.43868   0.60312204    -22664.26    5080.9654    527.23553   -11.022641   -2.9205074    527.35883    43.232478    58.300273    9917.0325 
  392000      1568000    9784.7853   -32463.195     273.5266   0.58365844    -22678.41    5206.0867    522.64073   -12.624011   -2.3495272    522.79845    43.152478    58.089976    9958.9781 
  392200      1568800    9745.9464   -32576.393    272.44088   0.63417332   -22830.446    5366.8579    524.62783    -13.16136   -1.8841713    524.79627    43.072478    58.067057      10000.9 
  392400      1569600    9854.4069   -32383.801    275.47282   0.81213791   -22529.394    5070.7087    526.94735   -13.845384   -1.3895562    527.13104    42.992478    58.053765     10042.97 
  392600      1570400    9846.4765   -32443.936    275.25113   0.92213955    -22597.46    5199.5341    525.60963   -14.176029  -0.51557791    525.80101    42.912478    57.935764    10085.108 
  392800      1571200    9743.7614   -32316.159     272.3798   0.68482696   -22572.398    5180.1432    528.19228   -13.815457   -1.1057139    528.37408    42.832478     57.92928     10127.31 
  393000      1572000    9767.6517   -32296.728    273.04764   0.60754826   -22529.076    5110.1142    532.95734   -14.797749  -0.73522828    533.16324    42.752478    57.986113    10169.842 
  393200      1572800    9848.3725   -32213.283    275.30413   0.63179461    -22364.91    4970.5981      534.287   -14.122839  -0.26577029    534.47369    42.672478    57.943555    10212.636 
  393400      1573600     9869.124   -32189.808    275.88422   0.72937238   -22320.684    4969.3127    534.12066   -13.984677   0.38930447    534.30385    42.592478    57.858702    10255.229 
  393600      1574400    9915.9511   -32357.318    277.19324   0.79072721   -22441.367    5073.5252    537.84605    -15.13198  -0.97434681    538.05976    42.512478    57.886014    10298.273 
  393800      1575200    9969.4627   -32404.871    278.68912   0.84432226   -22435.409    5086.1975    539.35571   -15.320038   -1.1928122    539.57456    42.432478    57.849294    10341.407 
  394000      1576000    10033.107   -32375.147    280.46825   0.78614427    -22342.04    4980.8102    542.93336   -14.968496    -0.638816    543.14003    42.352478    57.871165    10384.754 
  394200      1576800    9842.0511    -32278.41    275.12742   0.69302645   -22436.359     5034.477    548.47751   -15.292503    -1.601844      548.693    42.272478    57.949821    10428.329 
  394400      1577600    9808.3669    -32269.07     274.1858   0.62659067   -22460.704    5135.7128    546.49974   -13.976672    -2.752227    546.68537    42.192478     57.81246    10472.163 
  394600      1578400    9900.3546   -32004.024    276.75725    0.7406192   -22103.669    4831.4141    545.81829   -14.109023   -0.6068648    546.00096    42.112478    57.712905    10515.717 
  394800      1579200    9859.1441   -32166.303    275.60525   0.69503461   -22307.159    5117.4542    543.24484   -13.982083   -1.2991593     543.4263    42.032478    57.559344    10559.289 
  395000      1580000    9915.4444   -32192.758    277.17908   0.76384445   -22277.313    5144.3462     542.3101   -13.206573  -0.96856153    542.47175    41.952478    57.452071    10602.692 
  395200      1580800    9853.8201   -32093.971    275.45641   0.79976534   -22240.151    5128.5623    543.80929   -11.612257 -0.032900086    543.93326    41.872478    57.413828    10646.201 
  395400      1581600    9845.1315   -32024.388    275.21353   0.71820501   -22179.257    5059.5445    547.23544   -11.858804   0.11207039    547.36393    41.792478    57.431848    10689.897 
  395600      1582400    9776.8022   -32004.411    273.30344   0.63260613   -22227.608    5162.3222    546.58316   -11.348835  -0.30010039    546.70105    41.712478    57.332908    10733.663 
  395800      1583200    9882.3184   -32100.126    276.25307   0.71346759   -22217.808    5152.6305    549.38688   -11.198578   0.81928928    549.50161    41.632478    57.332924    10777.519 
  396000      1584000    9744.7929   -32018.158    272.40864   0.73363124   -22273.365    5203.6253    552.45149    -12.30654   0.50149422    552.58877    41.552478    57.341129    10821.635 
  396200      1584800    9855.2457   -32075.242    275.49627   0.61699252   -22219.997    5161.9303     554.4616    -12.75034  -0.30929875    554.60826    41.472478    57.318828    10865.898 
  396400      1585600    9903.9718    -32223.84    276.85837   0.79986113   -22319.868    5279.3822    555.98543   -13.801602   -2.0476828    556.16048    41.392478    57.283177     10910.29 
  396600      1586400    9927.2806   -32036.345    277.50995   0.86557028   -22109.065    5117.1437    555.57058   -14.254501   -2.1651912    555.75763    41.312478    57.191668    10954.739 
  396800      1587200    9888.0913    -32168.12    276.41444     0.727369   -22280.028    5274.5038     559.2433   -15.364091   -1.7352616      559.457    41.232478    57.217364    10999.403 
  397000      1588000      9788.36   -31926.106    273.62652   0.72538868   -22137.746    5254.7703    554.45419   -15.221757   -2.3777813    554.66819    41.152478    57.000541    11043.996 
  397200      1588800    9834.9294   -31997.858    274.92834   0.69604628   -22162.929    5315.9543    555.00319   -16.365072   -1.1714379    555.24564    41.072478    56.937039    11088.416 
  397400      1589600    9869.5826   -31936.595    275.89705   0.69475086   -22067.012    5253.8807    555.74557    -15.74315  -0.67805531    555.96892    40.992478    56.877704    11132.841 
  397600      1590400    9795.7888   -31961.749    273.83419   0.71282462    -22165.96     5383.412    556.61111   -15.812684   -1.0458854    556.83665    40.912478    56.822497     11177.39 
  397800      1591200    9878.9415   -31884.292    276.15867   0.67898517   -22005.351    5267.9659    556.56843   -15.660403   -0.5896489    556.78902    40.832478    56.741136     11221.91 
  398000      1592000    9688.1904   -31808.196    270.82636   0.67261336   -22120.006    5415.8271    557.22862   -14.840364 -0.080197491    557.42621    40.752478    56.679341    11266.521 
  398200      1592800    9814.6324   -31726.915    274.36095   0.81033113   -21912.283    5260.4836    556.67928   -15.094987   0.26334893    556.88396    40.672478    56.583848     11311.05 
  398400      1593600    9932.5454   -31732.084    277.65713   0.75152114   -21799.539    5150.0665    559.22414   -15.374952   0.26563114    559.43552    40.592478     56.57675    11355.726 
  398600      1594400    9762.9851   -31739.849    272.91719   0.81087297   -21976.864    5381.9026    558.67853    -14.27378   0.12716169    558.86086    40.512478    56.480331    11400.353 
  398800      1595200    9805.5534   -31788.166    274.10715   0.76430327   -21982.613    5373.0296    562.43089   -15.506001    1.0917285    562.64566    40.432478    56.508468     11445.22 
  399000      1596000    9905.6962   -31683.137    276.90657   0.52819887   -21777.441    5262.1278    559.47149   -14.022495   0.60485718    559.64752    40.352478    56.342807    11490.197 
  399200      1596800    9838.2131   -31654.233    275.02013   0.73303445    -21816.02    5305.3712    561.88185   -14.154893  -0.62470762    562.06047    40.272478    56.331749    11534.968 
  399400      1597600    9863.5282   -31857.929     275.7278   0.84728048   -21994.401    5424.3742     568.3535   -14.149534  -0.77129526    568.53013    40.192478    56.436596    11580.209 
  399600      1598400    9915.0995   -31828.504    277.16944   0.68260927   -21913.405    5403.6973    567.44016    -14.09777   -3.5187806    567.62616    40.112478    56.330768    11625.736 
  399800      1599200    9787.0558   -31691.319    273.59007   0.70625373   -21904.263    5498.3678    563.73799   -13.968921   -1.7977558     563.9139    40.032478    56.144704    11670.951 
  400000      1600000    9818.1269   -31692.187    274.45864   0.68141146    -21874.06    5480.9704    565.72292   -13.343368   -2.1714373    565.88442    39.952478    56.121004    11716.142 
Loop time of 5593.3 on 8 procs for 400000 steps with 12002 atoms

Performance: 24.715 ns/day, 0.971 hours/ns, 71.514 timesteps/s
82.6% CPU use with 8 MPI tasks x no OpenMP threads

MPI task timing breakdown:
Section |  min time  |  avg time  |  max time  |%varavg| %total
---------------------------------------------------------------
Pair    | 99.737     | 1027.4     | 2448.9     |2898.0 | 18.37
Bond    | 0.68313    | 6.4673     | 17.102     | 238.9 |  0.12
Neigh   | 2518.5     | 2525.5     | 2532.3     |  12.9 | 45.15
Comm    | 120.6      | 1116.3     | 1648       |1586.6 | 19.96
Output  | 450.41     | 450.53     | 450.72     |   0.5 |  8.05
Modify  | 18.291     | 454.61     | 938.1      |2036.4 |  8.13
Other   |            | 12.43      |            |       |  0.22

Nlocal:        1500.25 ave        3201 max           0 min
Histogram: 4 0 0 0 0 0 0 0 1 3
Nghost:        4445.25 ave        7842 max        1070 min
Histogram: 4 0 0 0 0 0 0 0 0 4
Neighs:       181689.0 ave      445572 max           0 min
Histogram: 4 0 0 0 0 0 1 1 1 1

Total # of neighbors = 1453513
Ave neighs/atom = 121.10590
Ave special neighs/atom = 185.06916
Neighbor list builds = 40000
Dangerous builds = 0

Total wall time: 1:33:13
