LAMMPS (29 Oct 2020)
################################################################################################################
# Template input file to run umbrella sampling
# run 200000 steps0
# read from restart file
# deleted velocity line
# reset timestep to 0 befre running the simulation
################################################################################################################

################################################################################################################
# VARIABLES
################################################################################################################
clear
variable rcut        equal 17.5     #est. 3.5*diameter
variable epsilon     equal 0.8126   #unit conversion
variable sigma       equal 4.7
variable shift       equal 23.5     #center particle radius
variable epsilon_cp  equal 0.5067
variable sigma_cp    equal 5.2
variable epsilon_pp  equal 1.1926
variable sigma_pp    equal 4.7
variable bondKeq     equal 2.9876
variable bondReq1    equal 23.5
variable bondReq2    equal 4.7
variable dt          equal 4.0
variable startTemp   equal 275.0
variable stopTemp    equal 275.0
variable Tdamp       equal 100.0
variable springKeq   equal 35.0
variable velocity    equal -0.0001
variable springX     equal 200.0
variable springY     equal 0.0
variable springZ     equal 0.0
variable springReq   equal 0.0

################################################################################################################
# SETUP
################################################################################################################
units		real
atom_style	molecular
atom_modify     sort 0 0.0       #print out in frames in order

read_data       data.twoParticles
Reading data file ...
  orthogonal box = (0.0000000 0.0000000 0.0000000) to (1000.0000 1000.0000 1000.0000)
  2 by 2 by 2 MPI processor grid
  reading atoms ...
  12002 atoms
  scanning bonds ...
  600 = max bonds/atom
  reading bonds ...
  12000 bonds
Finding 1-2 1-3 1-4 neighbors ...
  special bond factors lj:    0.0      0.0      0.0     
  special bond factors coul:  0.0      0.0      0.0     
   600 = max # of 1-2 neighbors
   600 = max # of 1-3 neighbors
  1200 = max # of 1-4 neighbors
  1800 = max # of special neighbors
  special bonds CPU = 0.053 seconds
  read_data CPU = 0.085 seconds
velocity        all create ${startTemp} 4834834 rot yes mom yes dist gaussian        #turn off rotation and momentum of the particles
velocity        all create 275 4834834 rot yes mom yes dist gaussian        

#read_restart    generic.restart

pair_style	lj/expand ${rcut}
pair_style	lj/expand 17.5
pair_coeff      1 1 0 0 0
pair_coeff      1 2 ${epsilon} ${sigma} ${shift}
pair_coeff      1 2 0.8126 ${sigma} ${shift}
pair_coeff      1 2 0.8126 4.7 ${shift}
pair_coeff      1 2 0.8126 4.7 23.5
pair_coeff      1 3 ${epsilon} ${sigma} ${shift}
pair_coeff      1 3 0.8126 ${sigma} ${shift}
pair_coeff      1 3 0.8126 4.7 ${shift}
pair_coeff      1 3 0.8126 4.7 23.5
pair_coeff      2 2 ${epsilon} ${sigma} 0
pair_coeff      2 2 0.8126 ${sigma} 0
pair_coeff      2 2 0.8126 4.7 0
pair_coeff      2 3 ${epsilon_cp} ${sigma_cp} 0
pair_coeff      2 3 0.5067 ${sigma_cp} 0
pair_coeff      2 3 0.5067 5.2 0
pair_coeff      3 3 ${epsilon_pp} ${sigma_pp} 0
pair_coeff      3 3 1.1926 ${sigma_pp} 0
pair_coeff      3 3 1.1926 4.7 0
special_bonds   lj 0.0 1.0 1.0   #turn off LJ interaction for directly bonded atoms (1-2)
Finding 1-2 1-3 1-4 neighbors ...
  special bond factors lj:    0.0      1.0      1.0     
  special bond factors coul:  0.0      0.0      0.0     
   600 = max # of 1-2 neighbors
   600 = max # of 1-3 neighbors
  1200 = max # of 1-4 neighbors
  1800 = max # of special neighbors
  special bonds CPU = 0.050 seconds

bond_style      harmonic
bond_coeff      1 ${bondKeq} ${bondReq1}
bond_coeff      1 2.9876 ${bondReq1}
bond_coeff      1 2.9876 23.5
bond_coeff      2 ${bondKeq} ${bondReq2}
bond_coeff      2 2.9876 ${bondReq2}
bond_coeff      2 2.9876 4.7
bond_coeff      3 ${bondKeq} ${bondReq2}
bond_coeff      3 2.9876 ${bondReq2}
bond_coeff      3 2.9876 4.7
bond_coeff      4 ${bondKeq} ${bondReq2}
bond_coeff      4 2.9876 ${bondReq2}
bond_coeff      4 2.9876 4.7

neighbor	2.0 bin            #consider cutoff +2 as neighbor
neigh_modify	every 1 delay 0 check yes     #every x step//no delay//check the neighbor list to see if need to update

restart         10 nvt.a.restart nvt.b.restart  #print restart every 10 ?steps?

timestep	${dt}
timestep	4

################################################################################################################
# SIMULATION
################################################################################################################
group           centroid1 id 1           # define group names
1 atoms in group centroid1
group           centroid2 id 6002
1 atoms in group centroid2

fix		1 all nvt temp ${startTemp} ${stopTemp} ${Tdamp}            #last number is how aggressive we want to derive the T back
fix		1 all nvt temp 275 ${stopTemp} ${Tdamp}            
fix		1 all nvt temp 275 275 ${Tdamp}            
fix		1 all nvt temp 275 275 100            
fix             2 centroid1 smd cvel ${springKeq} ${velocity} couple centroid2 auto auto auto ${springReq}
fix             2 centroid1 smd cvel 35 ${velocity} couple centroid2 auto auto auto ${springReq}
fix             2 centroid1 smd cvel 35 -0.0001 couple centroid2 auto auto auto ${springReq}
fix             2 centroid1 smd cvel 35 -0.0001 couple centroid2 auto auto auto 0

thermo_style    custom step time ke pe temp press etotal f_1 f_2[1] f_2[2] f_2[3] f_2[4] f_2[5] f_2[6] f_2[7] # SMD fix computes a "vector" of numbers, have to print the individual elements, as thermo custom only prints scalar numbers (7 quantities described in manual)
thermo          200                  #give an output every x step

dump            1 all custom 200 twoParticles.lammpstrj id type element xu yu zu fx fy fz    #print every x step
dump_modify     1 element A B C     #give element names

run		400000
Neighbor list info ...
  update every 1 steps, delay 0 steps, check yes
  max neighbors/atom: 2000, page size: 100000
  master list distance cutoff = 43
  ghost atom cutoff = 43
  binsize = 21.5, bins = 47 47 47
  1 neighbor lists, perpetual/occasional/extra = 1 0 0
  (1) pair lj/expand, perpetual
      attributes: half, newton on
      pair build: half/bin/newton
      stencil: half/bin/3d/newton
      bin: standard
Per MPI rank memory allocation (min/avg/max) = 195.3 | 196.0 | 197.1 Mbytes
Step Time KinEng PotEng Temp Press TotEng f_1 f_2[1] f_2[2] f_2[3] f_2[4] f_2[5] f_2[6] f_2[7] 
       0            0    9837.4929   -37771.155          275  0.075861616   -27933.662            0            0            0            0            0    200.03785    200.03825            0 
     200          800    9756.6328   -38005.483    272.73961 -0.020569357    -28248.85    314.80558            0            0            0            0    199.95785    199.95733  0.052548876 
     400         1600    9870.5334   -37887.854    275.92362 0.0084836995    -28017.32    83.466098   -1.2868244 0.00010894722 0.00018730216   -1.2868244    199.87785    199.84148  0.054152994 
     600         2400    9766.3274   -37992.088    273.01062 -0.044848966    -28225.76    291.09256    3.5616874 0.00032137016 -0.0033774913    3.5616891    199.79785    199.90001   0.20818512 
     800         3200    9928.4528     -37915.3    277.54272  0.092865109   -27986.847    50.964867   0.52234395 8.7171491e-05 -6.8030845e-05   0.52234396    199.71785    199.73317   0.24542751 
    1000         4000     9720.411   -37896.786    271.72706   0.13815859   -28176.375     241.2857    4.9950985 -0.0031527834 -0.0010918085    4.9950997    199.63785    199.78097   0.42168725 
    1200         4800    9853.6519   -37836.718    275.45171   0.06320553   -27983.066    49.530664    3.7035331 -0.0016717203 -0.0024010539    3.7035343    199.55785    199.66406   0.74714346 
    1400         5600    9860.8186   -38095.025    275.65205 -0.075460582   -28234.207    299.82159    2.5519003 -0.0021870168 -0.0020474265     2.551902    199.47785    199.55116   0.93720678 
    1600         6400    9878.9637   -37967.404    276.15929 -0.070138928    -28088.44    155.69277    6.9959431 -0.012080775 -0.0022479199    6.9959539    199.39785    199.59813    1.4108173 
    1800         7200    9708.4301     -37938.9    271.39214 -0.037424616    -28230.47    298.72517     5.472364 -0.010228261 -0.00087316631    5.4723736    199.31785     199.4746    1.9715084 
    2000         8000    9936.5524    -37990.97    277.76914 -0.029771331   -28054.418    121.47767    5.9875806 -0.0080188429 0.0028534899    5.9875866    199.23785    199.40932      2.44891 
    2200         8800    9838.1728   -38070.483    275.01901  0.027389057    -28232.31    298.79846    6.2629665 -0.0055106322 0.0044705167    6.2629706    199.15785    199.33719    2.9576454 
    2400         9600    9794.4095    -37966.88    273.79564  0.064416958   -28172.471     236.4976    9.3516577 -0.0072594366 0.0060531179    9.3516625    199.07785    199.34544    3.5308811 
    2600        10400    9903.2135   -37920.911    276.83717  0.091887753   -28017.697    83.529201    10.686332 -0.0076525285 0.0077731359    10.686337    198.99785    199.30357    4.2458311 
    2800        11200    9819.7594   -37984.784    274.50427  0.028821809   -28165.025    234.34507    6.2777709 -0.0011948633 0.0037873962    6.2777721    198.91785    199.09761    4.9595419 
    3000        12000    9820.1103   -37891.053    274.51408  -0.03066202   -28070.943    142.01227    4.2911463 -0.00051668178 0.00097202223    4.2911465    198.83785    198.96085    5.3425764 
    3200        12800    9822.1919   -37901.283    274.57227 -0.014365684   -28079.091    149.45853    3.8035981 0.00032853869 0.0014595876    3.8035984    198.75785    198.86692    5.6869922 
    3400        13600    9731.9385   -37902.614     272.0493 -0.020231704   -28170.675     242.3452    2.7633652 -0.0025327012 0.0015303439    2.7633668    198.67785     198.7572    5.9255081 
    3600        14400    9974.2773    -37955.54    278.82371 -0.0061694371   -27981.262    52.285768    2.1719691 -0.0026041746 -0.00012674183    2.1719707    198.59785    198.66031    6.2189271 
    3800        15200    9949.8593   -37986.385    278.14112  0.040916131   -28036.525    107.14496   -2.8044807  0.003077608 -0.00041036997   -2.8044825    198.51785    198.43812    6.2245331 
    4000        16000    9813.4729   -37922.671    274.32854  0.013835588   -28109.198    178.84443   -5.1733361 0.0051749508 -0.0051323014   -5.1733413    198.43785    198.29044    5.9749943 
    4200        16800    9709.7828   -37866.224    271.42996 -0.0064302393   -28156.442    226.87122   -3.4113994 0.0026392847 -0.0017148242   -3.4114008    198.35785    198.26078    5.5763316 
    4400        17600     9917.143   -37981.742    277.22656  0.014900875   -28064.599    135.36245   -1.2248453 0.0020043816 -0.0011475478   -1.2248475    198.27785    198.24325    5.3142497 
    4600        18400    9753.3585   -37929.425    272.64809  0.058718143   -28176.066    246.06234  -0.68868924 0.0011158539 4.7992181e-06  -0.68869015    198.19785    198.17857    5.2632026 
    4800        19200    9995.8133   -37937.044    279.42573  0.010630506    -27941.23    10.852797   -3.4143875 0.0046256214 0.0024492751   -3.4143915    198.11785     198.0207    5.0242899 
    5000        20000    9922.7201   -37972.022    277.38247 -0.034392213   -28049.302    119.02146    1.4718896 -0.0027257382 -0.00073736701    1.4718923    198.03785     198.0803    4.9320121 
    5200        20800    9710.2944   -37850.099    271.44426   0.12325912   -28139.805    208.41737    1.9658149 -0.004110698 0.00029512739    1.9658192    197.95785    198.01442    5.1266689 
    5400        21600    9877.0094   -37924.194    276.10466   0.10557621   -28047.185    116.61187   -2.8485939 0.0062928201 0.00031362736   -2.8486008    197.87785    197.79686    5.1019484 
    5600        22400    9844.5957   -37967.266    275.19855  0.051965404    -28122.67    193.84862    1.3582101 -0.002172121 1.6252891e-05    1.3582119    197.79785    197.83706    5.1130168 
    5800        23200    9843.6476   -37830.581    275.17205 -0.070587409   -27986.934    58.126834   0.37761707 -0.00048415917 -0.00026778588   0.37761748    197.71785    197.72904    5.2421551 
    6000        24000    9884.1757   -37958.603    276.30498  0.025996878   -28074.428    144.01789   -2.8176376 0.0039592361 0.00088373339   -2.8176405    197.63785    197.55775    5.1800564 
    6200        24800    9776.1371   -37815.421    273.28484   0.10532378   -28039.284    107.37788   -5.8954883 0.0080563937 -0.00083095435   -5.8954938    197.55785    197.38981    4.9392462 
    6400        25600    9750.3225   -37985.851    272.56321  0.046966985   -28235.528    303.92746   -6.5057817 0.0052147368 0.00094794586   -6.5057839    197.47785    197.29237    4.3970272 
    6600        26400    9839.9512   -37965.444    275.06872 -0.019303443   -28125.493    195.84265   -5.4525305 0.0061687558  0.004359561   -5.4525357    197.39785    197.24246    3.8721245 
    6800        27200    9749.4639       -38020    272.53921 -0.047217053   -28270.536    340.95902   -3.6190257 0.0024042528 0.0006057503   -3.6190265    197.31785    197.21485    3.5351654 
    7000        28000    9887.8931   -38026.772     276.4089 0.0081850686   -28138.879    208.30579   -2.7501832 -1.0636389e-05 0.0017454044   -2.7501838    197.23785    197.15967    3.1500273 
    7200        28800    9867.2485   -38016.627     275.8318  -0.04675204   -28149.379     215.4098    -5.263575 -0.0021475963 0.0021885548   -5.2635758    197.15785    197.00786    2.8687376 
    7400        29600    9822.0443   -38123.558    274.56815  0.074013571   -28301.514    366.50974    -8.992366 0.00085166081 0.0015180112   -8.9923662    197.07785    196.82132    2.3812411 
    7600        30400     9841.404   -38039.015    275.10933 -0.0031017689   -28197.611    262.58209   -7.9589316 -0.0036912693 0.0077897009   -7.9589363    196.99785    196.77085    1.6446974 
    7800        31200    9847.9588   -38046.187    275.29257    0.0629604   -28198.228    263.59972   -2.9094166 -0.0014980985 -0.00045510132    -2.909417    196.91785    196.83512    1.2511811 
    8000        32000     9860.841   -38168.899    275.65268 -0.066648327   -28308.058    372.00239    2.6242228 0.0015082334 -0.00014107773    2.6242232    196.83785    196.91323    1.2738533 
    8200        32800    9859.2849   -38000.458    275.60918  0.078197287   -28141.173    206.81018    2.0343791 0.0012122645 0.00034144265    2.0343795    196.75785    196.81637     1.512204 
    8400        33600    9944.3514   -38052.061    277.98715 -0.016986695    -28107.71    174.34453    5.1079295 -0.0020231992 0.0026370075    5.1079306    196.67785    196.82419     1.831964 
    8600        34400    9831.6433    -38018.02    274.83648 -0.088965849   -28186.377    253.42447 -0.041375897 1.7568111e-05 -7.9926421e-06 -0.041375902    196.59785    196.59707     1.972215 
    8800        35200    9928.7729   -38124.668    277.55167  -0.10424747   -28195.895     262.4577  -0.93807738 0.0007990219 -0.00036864622   -0.9380778    196.51785    196.49145    1.8829782 
    9000        36000    9859.8066   -38075.107    275.62376  0.038608695     -28215.3    279.32347   -2.7660179 0.00024731505 -0.0030238062   -2.7660195    196.43785    196.35922    1.7897142 
    9200        36800    9858.1048   -38131.917    275.57619   0.14543169   -28273.812    336.69302   -1.8541189 0.00082744826 -0.00065278331   -1.8541192    196.35785    196.30527    1.5865364 
    9400        37600    9878.7527    -38020.82    276.15339   0.10828883   -28142.067    206.02394   -5.0307691 0.0033809014 -0.0034011559   -5.0307714    196.27785    196.13451    1.3136536 
    9600        38400    9998.8982   -37980.643    279.51197  0.015703629   -27981.745    48.998138   -2.6778851 0.0014627604 0.00027824796   -2.6778855    196.19785    196.12174    1.0395145 
    9800        39200    9786.4669   -37842.889    273.57361  -0.12455407   -28056.422    125.05872   -3.1711249 0.00029386503 0.00054286713    -3.171125    196.11785    196.02765   0.74766634 
   10000        40000    9882.4331   -38191.089    276.25627  0.016805326   -28308.656     374.5302   -2.5233108 0.0017467486 -0.00076443382   -2.5233115    196.03785    195.96615   0.49212536 
   10200        40800    9819.8109   -38101.318    274.50571  0.071507834   -28281.507    345.50333   0.34790415 -0.00026695523 0.00025305816   0.34790434    195.95785    195.96819   0.41402188 
   10400        41600    9920.7188   -37927.346    277.32652  0.071877429   -28006.627    71.923421    2.2137419 -0.0022334341 0.0027602914    2.2137447    195.87785     195.9415   0.49435967 
   10600        42400    9733.9075   -37897.657    272.10435 -0.028595539   -28163.749    230.93132    3.2602563 -0.0016866965 0.0022632638    3.2602575    195.79785     195.8914     0.728324 
   10800        43200    9783.2423   -37866.083    273.48346 -0.044572413   -28082.841    151.01524    4.0701534 -0.00011873717 0.00081620485    4.0701535    195.71785    195.83454    1.0370603 
   11000        44000    9713.7032   -37893.127    271.53955 -0.056938994   -28179.424    246.38654    8.7905193 -0.0056531816 0.00050265506    8.7905211    195.63785    195.88941    1.5660073 
   11200        44800    9715.4448   -38040.085    271.58823  0.088067385    -28324.64    388.56232     10.41869 -0.0017698839 0.0021772452     10.41869    195.55785    195.85593    2.2771735 
   11400        45600     9801.474   -38126.821    273.99312  0.046410086   -28325.347    387.35723    11.564939 0.0032067362 -0.0016330696     11.56494    195.47785    195.80868    3.1991827 
   11600        46400    9859.7763    -38024.69    275.62292 0.0059361718   -28164.914    229.76187    11.206458 0.0010276079 0.0013313651    11.206458    195.39785    195.71843    4.0747231 
   11800        47200    9821.7933    -38093.87    274.56113  -0.10674716   -28272.077     341.7636    4.9261212 -0.0022154434 -0.00019739961    4.9261217    195.31785      195.459    4.7150426 
   12000        48000    9828.0271   -38084.488    274.73539   -0.1200656   -28256.461    327.27326    5.6527726 -0.0014517794 -0.0037791186    5.6527741    195.23785    195.39976    5.1276248 
   12200        48800    9824.5236   -38132.715    274.63745  0.029307599   -28308.191    377.45205    2.9391674 0.0012649504 -0.0023455724    2.9391686    195.15785    195.24223    5.5968907 
   12400        49600    9806.8124   -38090.366    274.14235   0.16769738   -28283.554    349.98402  -0.75862938 -0.00060077771 0.00049579931  -0.75862978    195.07785    195.05657    5.6326713 
   12600        50400    9800.5433   -38147.391     273.9671   0.10640881   -28346.848    412.25851  -0.85405401 -0.00066272524 0.00035185617  -0.85405434    194.99785    194.97385    5.5030804 
   12800        51200    9771.4166   -38228.234    273.15289 0.0056744047   -28456.817    525.52291    2.0599417 0.0010567734 -0.0018174105    2.0599428    194.91785     194.9771    5.4175549 
   13000        52000    9871.4868   -38082.716    275.95028  -0.15240608    -28211.23    282.55694   0.72604042 -0.00030919976 -0.00074254444   0.72604086    194.83785    194.85899    5.5290089 
   13200        52800    9916.1057   -38023.195    277.19757  0.051053046   -28107.089    178.20228  -0.64321593 -1.8742717e-05 0.0010096146  -0.64321672    194.75785    194.73987    5.4781698 
   13400        53600     9773.525   -38158.741    273.21182  0.083112342   -28385.215     452.6275    1.9433826 -0.001488554 -0.0030136145    1.9433855    194.67785    194.73377    5.6242587 
   13600        54400    9823.0892    -38187.44    274.59736   0.21128117   -28364.351    430.84551    1.4863891 -0.0013047126 -0.0024830979    1.4863918    194.59785    194.64072    5.7909007 
   13800        55200    9857.9897   -38120.223    275.57297 -0.076372149   -28262.233    331.38277     1.789717 -0.002489311 -0.0028268636     1.789721    194.51785    194.56938    5.9860072 
   14000        56000    9821.3844    -38028.58     274.5497  -0.18629874   -28207.196     277.9623  -0.11178557 0.00016910973 0.00013196519  -0.11178578    194.43785    194.43506    5.9631207 
   14200        56800    9707.7439    -38083.24    271.37296 -0.049056781   -28375.496    443.34695    6.3501476 -0.015534794 -0.0095483794    6.3501737    194.35785    194.53968    6.0891361 
   14400        57600    9793.4797   -38094.772    273.76964   0.14129964   -28301.292    367.42653    4.3774014 -0.009257893 -0.0075104303    4.3774176    194.27785    194.40332    6.5097046 
   14600        58400     9817.365   -38124.982    274.43734  0.038810832   -28307.617    376.36405    3.6352927 -0.0058692888 -0.0046277923    3.6353004    194.19785    194.30212    6.8157327 
   14800        59200    9919.9688   -37949.406    277.30555 -0.082975538   -28029.438    100.65603    4.9735677 -0.0089342743 -0.0078325147    4.9735819    194.11785    194.26035     7.205394 
   15000        60000    9817.8263   -37906.271    274.45023  -0.03339679   -28088.444    161.68044    1.4379694 -0.0028316737 -0.0019487048    1.4379735    194.03785    194.07933     7.546626 
   15200        60800    9854.5821   -38180.649    275.47772 -0.021433585   -28326.066    397.37514   -2.0159094 0.0026448569 0.0030979459   -2.0159135    193.95785    193.90065    7.5062757 
   15400        61600      9738.84    -37975.52    272.24223   0.11142945    -28236.68    304.61658   -8.4264043  0.013655263  0.011168872   -8.4264227    193.87785    193.63749      7.12943 
   15600        62400    9779.5235   -38013.484    273.37951 0.0094587268   -28233.961    299.53907    -14.64433  0.013844071  0.017875717   -14.644348    193.79785    193.37984    6.1989967 
   15800        63200    9929.8087   -38026.676    277.58062 -0.094319093   -28096.867    163.16543   -13.022345 0.0094879857  0.015066238   -13.022358    193.71785    193.34618    5.0744074 
   16000        64000    9841.2493   -37990.161    275.10501 -0.049372889   -28148.911    214.70592   -10.470407 0.0084756132  0.012264025   -10.470418    193.63785    193.33909    4.1864358 
   16200        64800    9767.3163   -37970.081    273.03826  0.063593674   -28202.764    265.96174   -12.996582  0.004055013  0.013401083    -12.99659    193.55785    193.18692    3.2839794 
   16400        65600    9828.4992    -38102.67    274.74859 0.0055719637   -28274.171    336.62309   -9.9303385 0.0033073966  0.013341516    -9.930348    193.47785    193.19453    2.4714407 
   16600        66400    9990.0874   -38112.627    279.26567 -0.036615961    -28122.54    185.67943    -8.642091 0.0078019803 0.0098054686   -8.6421001    193.39785    193.15133    1.6455231 
   16800        67200    9723.9603   -37948.801    271.82628 -0.047362808   -28224.841     288.7479   -5.8777809 0.0088486592 0.0036869576   -5.8777888    193.31785    193.15031   0.96859292 
   17000        68000     9832.119   -38050.046    274.84978 -0.063733706   -28217.927    280.49934   -4.1073671 0.0066499204 0.0011258672   -4.1073726    193.23785     193.1209   0.41829132 
   17200        68800    9802.3864   -38069.436    274.01862  0.077245626    -28267.05    329.58088   -4.8280022 0.0072398609 0.0012279972   -4.8280078    193.15785    193.02031   0.18336059 
   17400        69600    9869.0169   -38047.006    275.88123  0.097601458    -28177.99     240.1075   -5.3085974 0.0049165581 -0.00061087415   -5.3085997    193.07785    192.92658  -0.17255647 
   17600        70400    9830.6707   -38065.043    274.80929  -0.01094157   -28234.372    298.07014    1.0224989 -0.00059203068 8.1500845e-05    1.0224991    192.99785    193.02746  -0.33039081 
   17800        71200     9798.518   -37860.155    273.91049 -0.0023058062   -28061.637    124.42357  0.058832886 6.1790531e-06 -2.3387888e-05  0.058832891    192.91785    192.91993  -0.31537508 
   18000        72000    9690.7351   -38046.004    270.89749  0.061396736   -28355.269    417.30926   -2.1815494 0.00015970876 0.0014344537   -2.1815499    192.83785    192.77592  -0.44183911 
   18200        72800    9793.6709   -37934.081    273.77499 -0.083266391   -28140.411    201.88272   0.91835861 -0.00024491709 -0.00092911343   0.91835911    192.75785    192.78449  -0.50505067 
   18400        73600    10026.001   -37964.171    280.26962 -0.050238229    -27938.17  -0.18488985   -3.4946143 0.00069945806 0.0036795901   -3.4946163    192.67785     192.5784  -0.55675443 
   18600        74400    9841.9583   -37963.263    275.12483  -0.14751307   -28121.305    185.15303   0.83955135 -0.00036962948 -0.00056856189   0.83955162    192.59785    192.62224  -0.77165885 
   18800        75200    9989.8676    -38064.51    279.25952 -0.0018077402   -28074.642    137.26089    1.7041844 -0.0018672105 -0.0011736912    1.7041858    192.51785    192.56694  -0.79490386 
   19000        76000    9912.2246   -37915.429    277.08907   0.11015536   -28003.205    64.418666    5.3230106 -0.0054046408 -0.0036287326    5.3230146    192.43785    192.59034  -0.60018038 
   19200        76800     9766.822   -38014.643    273.02445  0.058828906   -28247.821    308.54364    8.0663226 -0.013281124 -0.00038746556    8.0663336    192.35785    192.58872 -0.027977858 
   19400        77600    9787.2724   -38048.812    273.59612 -0.038315577   -28261.539     323.8719    13.257089 -0.015585806 -0.0009064204    13.257099    192.27785    192.65702   0.85948446 
   19600        78400    9845.7194    -37889.77    275.22997  0.011774307   -28044.051    104.77926    22.016546 -0.018908898  0.010767293    22.016557    192.19785    192.82729    2.3601481 
   19800        79200     9890.656    -37972.44    276.48614 -0.070616225   -28081.784    146.95738    16.431487 -0.027603496 0.0080582031    16.431513    192.11785    192.58772    3.8521964 
   20000        80000    9903.6578    -37980.93    276.84959 -0.072652709   -28077.273    143.23054    12.409559 -0.020892122 0.0084446151     12.40958    192.03785    192.39281    4.9997926 
   20200        80800    9855.0941   -38012.064    275.49203  0.021378594    -28156.97    222.29469    6.8288324 -0.014673912 -0.00070666731    6.8288482    191.95785    192.15336    5.8079556 
   20400        81600    9821.3847   -37977.478    274.54971  0.075801043   -28156.093    221.72709    8.0594361 -0.018640299 -0.0041520758    8.0594587    191.87785    192.10852    6.3746384 
   20600        82400    9739.3765   -37847.413    272.25723 -0.098448735   -28108.036    178.10202    3.1162996 -0.006988931 -0.0011009714    3.1163077    191.79785    191.88729    6.7624787 
   20800        83200    9802.0112   -38013.648    274.00814 -0.038790972   -28211.637    284.94063     4.109419 -0.0090760638 -0.0013638192    4.1094292    191.71785    191.83566    7.0726295 
   21000        84000    9886.6291   -37902.038    276.37357 -0.049343691   -28015.409    87.790799    4.1639886 -0.0069818598 -0.0024539405    4.1639952    191.63785    191.75722    7.3478345 
   21200        84800    9953.2292   -37951.783    278.23533  0.037558289   -27998.554    70.952875    3.9020901 -0.0046619394 -0.0010485382     3.902093    191.55785    191.66974    7.6576061 
   21400        85600    9770.4991    -37948.71    273.12724  0.038984803   -28178.211    250.31144    2.9900769 -0.005301874 -0.00073324256    2.9900817    191.47785    191.56368    7.9957154 
   21600        86400    9946.2553   -37933.399    278.04037 0.0083163382   -27987.143    58.704399    -3.540882 0.0065225011 -0.0018201485   -3.5408885    191.39785    191.29708    8.0002558 
   21800        87200    9870.9764    -37840.73    275.93601  0.022380716   -27969.753    41.596025  -0.29464776 0.00077702815 -0.00010816015   -0.2946488    191.31785    191.30983    7.7527193 
   22000        88000    9757.5412   -37888.699    272.76501 -0.058123189   -28131.158    204.01319   -3.6386213 0.0079353999 -0.0030654402   -3.6386313    191.23785    191.13429    7.6075923 
   22200        88800    9776.4487   -37864.601    273.29355 -0.038292523   -28088.153    159.83216   -9.7653815  0.024982977 -0.0051572743   -9.7654148    191.15785    190.87924    7.1512813 
   22400        89600    9865.5618   -38169.026    275.78465 -0.014749368   -28303.464    371.83521   -11.039374  0.021045977 0.0043293314   -11.039395    191.07785    190.76284    6.3573854 
   22600        90400    9786.0825    -38112.69    273.56286  0.048603776   -28326.607      392.645   -7.2906982  0.013963445 0.00053805573   -7.2907116    190.99785    190.78994    5.6172158 
   22800        91200    9938.1841   -38087.912    277.81475  0.007412668   -28149.728    213.89364   -11.308341  0.016841802  0.001406492   -11.308354    190.91785    190.59515    4.9336037 
   23000        92000     9772.929   -38093.894    273.19516 -0.056556326   -28320.965    387.28374   -10.187211   0.01810178 0.0019933656   -10.187227    190.83785    190.54719      3.97409 
   23200        92800    9926.8823   -37954.784    277.49882  -0.15334945   -28027.902     95.91866    -9.544426  0.020163536  0.011277744   -9.5444539    190.75785    190.48555    3.2136142 
   23400        93600    9770.6502   -37996.039    273.13146 -0.058860029   -28225.389    293.28826   -7.9843955  0.015312435 0.0014570203   -7.9844103    190.67785    190.45012    2.4756844 
   23600        94400    9765.5868   -38025.113    272.98992    0.1016582   -28259.526    323.40567   -9.5394749  0.020896777 -0.0040452368   -9.5394987    190.59785    190.32569    1.6950373 
   23800        95200    9849.1289    -38008.96    275.32528    0.1308336   -28159.831    222.03195   -4.0865129  0.011084842 -0.0019336624   -4.0865284    190.51785    190.40149    1.1471966 
   24000        96000    9786.5652   -38126.038    273.57635   0.17213473   -28339.473    401.81098   -4.0096949 0.0079309987 -0.0039493582   -4.0097046    190.43785    190.32369   0.81885474 
   24200        96800    9978.5125   -37952.138     278.9421 -0.00080581531   -27973.625    38.469353   -2.7657566 0.0069727521 -0.0021737925   -2.7657663    190.35785    190.27923   0.46468503 
   24400        97600    9768.3548   -37916.662     273.0673  -0.13668485   -28148.307    213.39204   -2.5905236 0.0062353569 0.00034979265   -2.5905311    190.27785    190.20423    0.2936347 
   24600        98400     9700.619   -38028.013    271.17379 -0.049483327   -28327.394    392.00344  -0.40402126 0.00095100678 0.00012610532  -0.40402239    190.19785    190.18671   0.16458877 
   24800        99200    9968.4599   -37953.754    278.66109 -0.00043971749   -27985.294    48.550945   -3.5162401 0.0094595834 -0.0009492655    -3.516253    190.11785    190.01779 0.0011288873 
   25000       100000    9811.3409   -37959.262    274.26894  0.069074562   -28147.921    209.17681  -0.13830908 0.00044653925 -0.00010274858  -0.13830984    190.03785     190.0343  -0.10039291 
   25200       100800    9783.3599   -38077.849    273.48675  0.022909017   -28294.489    355.54281    1.0327078 -0.0030208033 0.0004457259    1.0327123    189.95785    189.98776 -0.070299778 
   25400       101600    10016.993   -38011.117     280.0178 -0.025862204   -27994.124    57.483722    3.0358991 -0.0089337972 0.0033091417    3.0359141    189.87785    189.96499   0.11874599 
   25600       102400    9978.5916   -37817.461    278.94431 -0.092981211   -27838.869   -96.396292    7.4990282 -0.024693537  0.004372876    7.4990701    189.79785    190.01251   0.58950583 
   25800       103200    9795.4174   -37952.483    273.82381 -0.026506284   -28157.065    221.77757    9.7363067  -0.02560738 0.0013424373    9.7363405    189.71785    189.99643    1.2024407 
   26000       104000    9917.1593   -37872.383    277.22702   0.04152737   -27955.224    19.481491    8.9593296 -0.023653317 0.0018266928    8.9593611    189.63785    189.89423    2.0107649 
   26200       104800    9668.4507    -38124.55    270.27455  -0.10695273   -28456.099     520.4745    11.161534 -0.031754612 0.00049782989    11.161579    189.55785    189.87715    2.7870327 
   26400       105600    9829.5865   -38031.233    274.77898  0.029836736   -28201.646    266.40274     13.00991 -0.040832867 -0.0022379759    13.009974    189.47785    189.84996    3.7271121 
   26600       106400    9952.3027   -37997.576    278.20943  0.022928369   -28045.273    111.24169    11.378284 -0.028743714 0.0008680537    11.378321    189.39785    189.72334    4.7148659 
   26800       107200    9809.4475   -38057.878    274.21601 -0.016122112   -28248.431    316.46744     7.597541 -0.018382492 0.0027931358    7.5975638    189.31785    189.53532    5.5131406 
   27000       108000    9785.5329   -38109.992     273.5475  0.037402394   -28324.459    393.08843    7.9831154 -0.017829641 -0.001052638    7.9831354    189.23785    189.46634      6.16231 
   27200       108800    9874.3031   -38032.611      276.029 -0.022099724   -28158.308    226.51996    6.9318775  -0.02242866 0.0031461849    6.9319145    189.15785     189.3563    6.7681116 
   27400       109600    9877.7945   -38080.132     276.1266 -0.044815748   -28202.337    270.94559    7.2260458 -0.020658162 0.0043486222    7.2260767    189.07785    189.28471    7.3080267 
   27600       110400    9779.1512   -38104.744     273.3691  0.067269344   -28325.593    394.94689  -0.51703908 0.0012556845 -0.00012774464  -0.51704062    188.99785    188.98348    7.5210389 
   27800       111200    9917.9681   -38061.804    277.24963 -0.027540317   -28143.836     211.5685    -3.237364 0.0078476962 0.00044776409   -3.2373735    188.91785    188.82575     7.306133 
   28000       112000    9723.2686   -37986.646    271.80694   0.16536692   -28263.377    331.93574   -6.5095034  0.016895566 0.0039648449   -6.5095265    188.83785    188.65226    6.9142811 
   28200       112800    9880.3823   -38065.161    276.19894 -0.0032054642   -28184.779    255.03598   -6.3427108  0.019184644 0.0021825933   -6.3427401    188.75785    188.57703    6.4230053 
   28400       113600    9742.5473   -38022.732    272.34587 -0.072488322   -28280.185    351.00317   -4.1638327  0.012893616 0.0014149185   -4.1638529    188.67785    188.55928    5.9296131 
   28600       114400    9793.8808   -37953.254    273.78086  0.061999395   -28159.373    229.41575   -5.5147831  0.019428613 0.0026299278    -5.514818    188.59785    188.44068    5.4271224 
   28800       115200    9779.3117   -38192.418    273.37359 -0.0020944832   -28413.106    479.30219   -7.9845509  0.022251974 0.0027459061   -7.9845824    188.51785    188.29012    5.0261677 
   29000       116000    9875.2637   -38069.453    276.05586 -0.0043010711   -28194.189    257.36286   -6.5432797  0.018306803 0.0031241899   -6.5433061    188.43785     188.2513    4.5565492 
   29200       116800    9924.7188   -38079.936    277.43834  0.001033903   -28155.217    219.88696   -5.2033264  0.011992447 0.0023401253   -5.2033408    188.35785    188.20958    4.0445667 
   29400       117600    9814.3825   -38076.808    274.35396 -0.064130091   -28262.425    331.97798   -3.6910901 0.0090305663 0.0020669347   -3.6911017    188.27785    188.17279    3.6576987 
   29600       118400    9914.4184   -38023.079     277.1504  -0.10780055   -28108.661    179.98229   -4.0723951   0.01388028 0.0042588466   -4.0724209    188.19785    188.08189    3.1621861 
   29800       119200    9850.4338   -38115.822    275.36175  -0.06793658   -28265.389    332.68553   -6.2132544   0.02163701 0.0020579787   -6.2132924    188.11785    187.94073    2.7143137 
   30000       120000    9714.3864   -37936.209    271.55865   0.16550632   -28221.823    284.05374   -6.5896833  0.021670344   0.00197265   -6.5897192    188.03785    187.84997     2.229771 
   30200       120800    9903.2602   -38091.691    276.83848   0.21301802    -28188.43    248.80434    -3.988105  0.015028097 0.0025716724   -3.9881341    187.95785     187.8443    1.8700532 
   30400       121600    9751.2698   -38068.844     272.5897 -0.056282378   -28317.574    379.13044   -7.0973376  0.028175589 0.0068696901   -7.0973969    187.87785    187.67547    1.3923164 
   30600       122400    9865.7966   -37997.799    275.79121 -0.086660323   -28132.002    197.49569   -3.1430881  0.012949592 0.0032500207   -3.1431165    187.79785    187.70845   0.91171668 
   30800       123200    9786.4879   -37923.747    273.57419 0.0029872168   -28137.259    203.41458  -0.55951063 0.0021544205 0.00069878341  -0.55951522    187.71785    187.70226   0.75339381 
   31000       124000    9892.4989   -38088.525    276.53765  0.025194099   -28196.026    259.95579  -0.51278514 0.0019584273 0.00039314511  -0.51278904    187.63785     187.6236   0.74755466 
   31200       124800    9896.7024   -38192.316    276.65516  0.028899904   -28295.614    356.70211    3.2244608 -0.011046622 -0.0020701079    3.2244804    187.55785    187.65038    0.8658607 
   31400       125600    9809.0421    -38169.26    274.20468  0.013782622   -28360.218    421.94334    5.0038132 -0.017411001 -0.0020949908    5.0038439    187.47785    187.62122    1.2280282 
   31600       126400    9771.8001   -38050.377    273.16361 -0.041611006   -28278.577     342.6043   0.66831582 -0.0021484363 -0.00042551792   0.66831941    187.39785    187.41734     1.473984 
   31800       127200    9889.7423   -37973.096    276.46059  0.016675494   -28083.354    148.78566  -0.30391453 0.00099130951 0.00016519882  -0.30391619    187.31785    187.30957    1.5421349 
   32000       128000    9882.3969   -37926.754    276.25526  -0.02125818   -28044.357     111.0982    2.7491547 -0.010235046 -0.0032430272    2.7491756    187.23785     187.3168    1.5923099 
   32200       128800    9846.6039   -38023.622    275.25469  0.057614862   -28177.018    244.11447    4.1132286 -0.017000946 -0.0043089902     4.113266    187.15785    187.27577    1.9550842 
   32400       129600    9971.1126   -37830.413    278.73524 -0.0021004785   -27859.301   -74.249495    2.6930261 -0.011050463 -0.0034192575     2.693051    187.07785    187.15519    2.2567322 
   32600       130400    9692.4105   -38062.286    270.94433 -0.075730025   -28369.875    435.80546   -1.1720355 0.0047680049 0.0012678021   -1.1720458    186.99785    186.96476     2.288242 
   32800       131200    9946.0146   -38111.153    278.03365 -0.00093465195   -28165.138     229.6911   0.84143468 -0.0038093762 -0.0010775216     0.841444    186.91785    186.94229    2.3074496 
   33000       132000    9946.1501   -38063.887    278.03743 -0.013242668   -28117.737    181.69815    2.8507598 -0.010877492 -0.0027088919    2.8507818    186.83785     186.9197    2.5211627 
   33200       132800    9659.9585   -38111.285    270.03715  0.019983419   -28451.326    516.06397    4.8293448 -0.016381385 -0.0069935677    4.8293776    186.75785    186.89623     2.779019 
   33400       133600    9922.2271   -38054.519    277.36868  0.024410711   -28132.292    196.54592     3.374421 -0.014078084 -0.0027595792    3.3744515    186.67785    186.77466    3.2116941 
   33600       134400    9768.8038   -38088.957    273.07985  0.037498466   -28320.153    385.38974    3.9935832 -0.017422076 -0.0049746287    3.9936243    186.59785    186.71235    3.4801406 
   33800       135200    9816.7301   -38044.248    274.41959  0.049832705   -28227.518    291.38403    9.9660702 -0.045646015 -0.018520262    9.9661919    186.51785      186.803    3.9629147 
   34000       136000    9896.7591   -38037.395    276.65674  -0.01852989   -28140.636     207.6092    3.7566453 -0.019511856 -0.0068842985    3.7567023    186.43785    186.54558    4.5192848 
   34200       136800    9847.2672   -37902.643    275.27324 -0.056405477   -28055.375    122.11144    1.5965436 -0.0090645352 -0.0033867605    1.5965729    186.35785    186.40387    4.7851855 
   34400       137600    9782.6317   -37866.153    273.46639   0.11384675   -28083.521    150.74815    3.5338328 -0.018267913 -0.0075845833    3.5338881    186.27785    186.37922    4.9913104 
   34600       138400    9732.5231   -38137.589    272.06565   -0.0594466   -28405.065    471.24677   0.36176471 -0.0015665994 -0.0005543968   0.36176853    186.19785    186.20859    5.0985142 
   34800       139200    9910.9797   -38126.703    277.05427 -0.0060795718   -28215.723    282.45294  -0.92596906 0.0042624987 0.0012873896  -0.92597977    186.11785    186.09179    5.2055414 
   35000       140000    9797.9441   -38079.538    273.89444 -0.031965745   -28281.594    349.07689    2.7231081 -0.013200178 -0.004411685    2.7231437    186.03785    186.11605    5.3001702 
   35200       140800    9858.9463   -38059.467    275.59971  0.034310996   -28200.521    270.17575  -0.78319574 0.0040341547 0.0009169935  -0.78320667    185.95785    185.93587    5.4193791 
   35400       141600    9894.9808    -38136.67    276.60703 -0.0077558206   -28241.689    310.07712   -3.2447363  0.016623618 0.0059602528   -3.2447843    185.87785    185.78554    5.2271119 
   35600       142400    9873.7044   -37996.768    276.01227 -0.021660617   -28123.064     190.9394   0.68644426 -0.0030542443 -0.001099558   0.68645194    185.79785    185.81786    5.1302797 
   35800       143200    9946.2619   -38191.441    278.04056 -0.011996919   -28245.179    310.31767   -3.0253982   0.01427332 0.0056570091   -3.0254372    185.71785    185.63181    5.0341178 
   36000       144000    9836.0621   -38144.805       274.96  0.041079767   -28308.743    374.18809   -3.5323631  0.017356558 0.0058534915   -3.5324106    185.63785    185.53732    4.7625717 
   36200       144800    9864.4454   -38019.092    275.75344 0.0067869632   -28154.647     222.3888   0.97858772 -0.0040026986 -0.0014554689   0.97859699    185.55785    185.58621    4.7323634 
   36400       145600    9913.4591   -37919.665    277.12358 -0.033198628   -28006.205    74.029613   -4.1349188  0.016437241  0.007120192   -4.1349576    185.47785    185.36011    4.5865079 
   36600       146400    9863.2918   -38013.638    275.72119 -0.082478466   -28150.346    219.63841   0.73091722 -0.0028745963 -0.00096736891   0.73092351    185.39785    185.41913    4.3694198 
   36800       147200    9874.7256    -38053.79    276.04081 -0.087197278   -28179.065    247.05107   0.39713778 -0.0018566918 -0.0003058469   0.39714224    185.31785     185.3296    4.5155009 
   37000       148000    9817.6281   -38130.698    274.44469  0.021924404    -28313.07    379.49814   -3.8324516  0.019019008 0.0027452966   -3.8324998    185.23785    185.12875    4.3615909 
   37200       148800    9792.0373   -38188.873    273.72932  0.078663845   -28396.836       463.69   -4.0912861  0.020784474  0.005193434   -4.0913422    185.15785    185.04135     4.013492 
   37400       149600    9854.2584    -38126.26    275.46867   -0.1011805   -28272.002    339.46056   -2.4514536  0.011879728 0.0041368336   -2.4514858    185.07785    185.00821    3.7510054 
   37600       150400     9780.191   -37978.209    273.39817 -0.045395983   -28198.018    267.25002   -4.6397481  0.023767659 0.0093228519   -4.6398184    184.99785    184.86568    3.5232802 
   37800       151200    9925.6003   -37950.107    277.46298  -0.08595988   -28024.507     92.62587   -1.1347703  0.006691989 0.0011114968   -1.1347906    184.91785    184.88583    3.3069029 
   38000       152000    9821.9614   -38082.403    274.56583 -0.076690682   -28260.441     326.4757  -0.80822183 0.0042147957 0.00070919736  -0.80823313    184.83785    184.81516    3.2860322 
   38200       152800    9963.4506   -38023.283    278.52106  0.003835332   -28059.832    122.70409   -3.8080262  0.018727273 0.0047270497   -3.8080752    184.75785    184.64945    3.0640749 
   38400       153600    9763.4753   -38050.669    272.93089 -0.0048488283   -28287.194    351.56162   -4.0156517  0.018732555 0.0050264901   -4.0156985    184.67785    184.56352    2.7573461 
   38600       154400    9882.0697   -38079.542    276.24611 -0.023652697   -28197.473    263.21356   -2.2252357  0.010975363 0.0030271379   -2.2252648    184.59785    184.53467    2.4373993 
   38800       155200    9815.5497   -37996.694    274.38659 -0.065955916   -28181.144    246.97646   -4.2478173  0.020755917 0.0059089924   -4.2478722    184.51785    184.39688    2.1522546 
   39000       156000    9829.0088   -37952.851    274.76283 -0.084724584   -28123.842    189.24377   -3.1801186  0.014419116 0.0055251032    -3.180156    184.43785    184.34739    1.9856983 
   39200       156800    9880.7472   -38221.608    276.20914  0.075310817   -28340.861    404.34556   -1.1960066 0.0059611694 0.0013387729   -1.1960222    184.35785    184.32408     1.711979 
   39400       157600    9778.6073    -38142.67     273.3539   0.11245321   -28364.063    425.53617   0.71530265 -0.0034727446 -0.0011208345   0.71531196    184.27785    184.29869    1.6171102 
   39600       158400    9730.3619   -38108.045    272.00523  0.030390457   -28377.684    440.13374    1.9423122 -0.0092429241 -0.0036148183    1.9423376    184.19785    184.25374    1.8289121 
   39800       159200    9748.2974    -38137.14     272.5066 -0.017779858   -28388.842    454.25017   0.74891383 -0.0033214033 -0.0014624705   0.74892262    184.11785    184.13965    1.9143648 
   40000       160000    9809.9904   -38008.575    274.23119 -0.092474261   -28198.584    265.54212   -2.3693223  0.011024836 0.0046473377   -2.3693525    184.03785    183.97055    1.8587479 
   40200       160800    9769.3875   -38025.814    273.09616  0.058573857   -28256.427    322.05082            0            0            0            0    183.95785    183.95895    1.6648375 
   40400       161600    9757.8111   -38166.975    272.77255 -0.0089093349   -28409.164    471.75473     1.094516 -0.005307231 -0.0016418772    1.0945301    183.87785    183.90952    1.7341221 
   40600       162400    9867.6277   -38119.054     275.8424  0.066491737   -28251.426    312.82664     1.193843 -0.0052073787 -0.0023581928    1.1938566    183.79785    183.83236    1.8201222 
   40800       163200    9880.5612   -37955.829    276.20394 -0.023438668   -28075.268    140.48384    1.6655514 -0.0068512769 -0.0026652786    1.6655676    183.71785    183.76584    2.0005384 
   41000       164000    9794.3244   -37961.508    273.79326  -0.11389255   -28167.183    235.93535   0.39577596 -0.0017897713 -0.0006788376   0.39578059    183.63785    183.64956    2.1397992 
   41200       164800    9775.8902   -37955.607    273.27794 -0.083311999   -28179.716    247.65533    2.8278033 -0.012764972 -0.005653114    2.8278378    183.55785    183.63904    2.2637049 
   41400       165600     9873.705   -37912.806    276.01228  0.059458723   -28039.101    103.80189    1.6481171 -0.0077313362 -0.0021509159    1.6481367    183.47785    183.52534    2.4841807 
   41600       166400    9833.1958   -38133.581    274.87988  0.035037365   -28300.385    363.50246    4.3908478 -0.018325571 -0.0034214673    4.3908873    183.39785     183.5237    2.7470273 
   41800       167200      9748.89   -37998.123    272.52317   0.12491759   -28249.233    313.27296    5.6599005 -0.027841481 -0.0085746019    5.6599755    183.31785    183.47996    3.1242818 
   42000       168000    9897.7213   -38034.263    276.68364   0.01228608   -28136.542    203.71202    4.2379925  -0.02009535 -0.0054131114    4.2380436    183.23785    183.35934    3.4814101 
   42200       168800     9981.135   -37946.078    279.01541  -0.02397535   -27964.943    33.239654    3.6390964 -0.018669199 -0.0036835265    3.6391462    183.15785    183.26223    3.8454809 
   42400       169600    9872.6332   -37986.609    275.98232  0.015816119   -28113.975    180.98077   0.35612179 -0.0019256361 -0.0001058766   0.35612701    183.07785    183.08842    3.9914452 
   42600       170400    9778.5201   -37984.852    273.35146 -0.011052857   -28206.332    271.87057    3.4006166 -0.017444632 -0.0024300107    3.4006622    182.99785    183.09541     4.057666 
   42800       171200    9719.9256   -38225.611    271.71349 -0.070208738   -28505.685    570.62423     1.439554 -0.0074362301 -0.00052140382    1.4395733    182.91785    182.95938     4.305794 
   43000       172000    9879.9403   -38099.414    276.18659  0.057651845   -28219.474    284.52402   -1.3266881 0.0068042039 0.00038943795   -1.3267056    182.83785    182.80034    4.3365581 
   43200       172800    9841.9598   -38034.808    275.12487  0.024064565   -28192.848    258.03335  -0.28380121 0.0013610615 5.8107369e-05  -0.28380448    182.75785    182.75014    4.1484683 
   43400       173600    9778.9181   -38192.951    273.36258 -0.066621296   -28414.033    481.34448   -1.5191858 0.0081835264 0.00076128684    -1.519208    182.67785    182.63484    4.1389101 
   43600       174400    9836.7667   -38143.726     274.9797 -0.040041339   -28306.959    373.95148   -3.2310044    0.0193758 0.0030734514    -3.231064    182.59785    182.50593    4.0140259 
   43800       175200    9866.9141    -38039.04    275.82245 -0.079904633   -28172.126    237.31467   -2.9576916  0.017036371 0.0021068312   -2.9577414    182.51785    182.43374    3.7125817 
   44000       176000    9921.6916    -37916.57    277.35371  0.082755644   -27994.878    59.403747    2.1606153 -0.013683933 -0.0018697941    2.1606594    182.43785    182.49998    3.7879704 
   44200       176800    9761.6765   -37950.243    272.88061 -0.027582838   -28188.566    255.04454    2.2141127 -0.014211519 -0.0021198735    2.2141593    182.35785    182.42151    3.9443138 
   44400       177600    9846.8109    -38062.15    275.26048  -0.14261609   -28215.339    285.00776  -0.73869782 0.0043951302 0.00057865116  -0.73871112    182.27785    182.25714    4.0567535 
   44600       178400    9809.1382   -37995.118    274.20737 -0.089124596    -28185.98     256.6079   0.93410405 -0.0052133779 -0.00073454208   0.93411889    182.19785    182.22494    4.1111078 
   44800       179200    9856.0033   -37985.536    275.51745  0.014480142   -28129.532    198.36097   -3.5227935  0.019710443 0.0028906073   -3.5228498    182.11785     182.0176    4.0920251 
   45000       180000    9839.6819   -37995.437    275.06119 -0.027168184   -28155.755    222.90392   -3.5398197  0.018989297 0.0022218824   -3.5398714    182.03785    181.93711    3.7699539 
   45200       180800    9793.4932     -37964.7    273.77002 -0.043251179   -28171.207    238.69012   -2.2805127  0.011517095 0.0019854845   -2.2805427    181.95785    181.89309    3.4733266 
   45400       181600    9900.8016   -38045.796    276.76975  -0.08927388   -28144.994    211.92467    1.5153592 -0.0074795164 -0.00076126997    1.5153779    181.87785    181.92155    3.4331894 
   45600       182400    9828.0367   -38188.874    274.73566 0.0006783104   -28360.838    425.79816    1.9809383 -0.011316459 -0.001655762    1.9809713    181.79785    181.85485    3.5983009 
   45800       183200    9800.5312   -38158.817    273.96676  0.040198429   -28358.286    422.23297    3.0176559 -0.018319271 -0.0035109834    3.0177136    181.71785    181.80447    3.8014779 
   46000       184000    9833.9441   -38259.263     274.9008 0.00052686609   -28425.318      491.953    0.8766796 -0.0050850578 -0.0006265235   0.87669457    181.63785     181.6633    3.9070749 
   46200       184800    9947.1823   -38123.742    278.06629  -0.13592582    -28176.56    245.32251  0.043390712 -0.00026736824 -3.2097339e-05  0.043391548    181.55785    181.55949    3.9636322 
   46400       185600     9621.615   -38161.472    268.96529 -0.082584706   -28539.857    608.89846    1.0081232 -0.0059144682 -0.0016090495    1.0081418    181.47785    181.50705    4.0847849 
   46600       186400    9875.0252   -38231.245    276.04919  -0.03736511    -28356.22    421.78132     -0.92671 0.0060929458 0.00094403919  -0.92673051    181.39785    181.37177    4.1667596 
   46800       187200    9808.8418   -38241.736    274.19908    0.1024491   -28432.894    496.76383   -1.3820668  0.010453099 0.00081449247   -1.3821065    181.31785    181.27876    4.0234334 
   47000       188000    9805.4155   -38065.347     274.1033 -0.023661746   -28259.931    326.56413   -2.2953914  0.014242038 0.00088115343   -2.2954358    181.23785    181.17267    3.9405674 
   47200       188800    9858.0367   -38106.582    275.57429  -0.21603975   -28248.545    317.60055  -0.64811751  0.004188095 9.2405687e-05  -0.64813105    181.15785    181.13973    3.8976671 
   47400       189600    9823.4379   -38040.705     274.6071  -0.18876534   -28217.267    286.87037  -0.63199001 0.0039358681 -0.00015447771  -0.63200229    181.07785    181.06019    3.8441355 
   47600       190400    9972.2456   -38141.117    278.76691  0.071709129   -28168.872    234.60642  -0.10102305 0.00060136565 -4.6300873e-05  -0.10102485    180.99785    180.99536    3.7328447 
   47800       191200    9778.1726   -38238.479    273.34174  0.042629353   -28460.306    523.29007    4.8489817  -0.02926978 0.0034554598    4.8490713    180.91785    181.05679    3.8513182 
   48000       192000      9740.72   -38242.416    272.29478    0.1156093   -28501.696    566.36691   -2.7370654  0.017919942 -0.00014200123   -2.7371241    180.83785    180.76005    3.9837894 
   48200       192800    9806.4858    -38090.52    274.13322 0.0088055906   -28284.034     350.9411   -3.3447881  0.020418233 0.0012653819   -3.3448507    180.75785    180.66268    3.8112866 
   48400       193600    9745.9795   -38070.849    272.44181  -0.16465879    -28324.87    393.36224  -0.73533127 0.0052560282 0.00019454831  -0.73535008    180.67785    180.65724    3.7022337 
   48600       194400     9847.376   -38056.209    275.27627 -0.069820898   -28208.833    277.08546  -0.41897569 0.0029982009 9.0024586e-05  -0.41898643    180.59785    180.58628    3.6253946 
   48800       195200    9847.0614   -38163.457    275.26748 -0.055337382   -28316.396    381.59057   0.17294685 -0.0011367635 -3.5596999e-06   0.17295059    180.51785    180.52319    3.5730648 
   49000       196000    9672.6782   -38160.779    270.39273   0.07445437   -28488.101    550.03071   -2.7844348  0.017293538 0.00088387238   -2.7844886    180.43785    180.35869    3.4556747 
   49200       196800    9930.0235    -38167.54    277.58663  0.025662121   -28237.517    300.16478   -4.0149114  0.024018566 -0.0010222463   -4.0149834    180.35785    180.24354    3.1998265 
   49400       197600    9858.3809   -38153.797    275.58391 0.0060444732   -28295.416    360.78593    3.0956892 -0.020368564 0.00041649846    3.0957562    180.27785     180.3667    3.2296053 
   49600       198400    9786.9607   -38102.097    273.58741 -0.090522271   -28315.136    381.11113    4.4230983 -0.027897074  0.002444522    4.4231869    180.19785    180.32463    3.5246515 
   49800       199200    9774.5429   -38173.992    273.24028  0.058773319   -28399.449    465.43575    4.2523049 -0.026852643 0.0022207741    4.2523903    180.11785    180.23975    3.8953381 
   50000       200000    9867.7816   -38109.365     275.8467  -0.15109963   -28241.583    307.30702    7.2938246 -0.046283975 0.00057764802    7.2939715    180.03785    180.24665    4.2150585 
   50200       200800    9902.6849   -38043.994     276.8224 -0.044632905   -28141.309    209.18899    4.0350198 -0.024772823 3.0846898e-05    4.0350959    179.95785    180.07354    4.6674851 
   50400       201600    9754.6469    -38019.75     272.6841 -0.052227135   -28265.103    333.24381    2.5360882 -0.016454951 -0.00076458828    2.5361417    179.87785    179.95071    5.0512705 
   50600       202400    9811.8326   -37974.414    274.28269  0.053814405   -28162.582    229.86519    6.6082632 -0.042460034 0.0029591265    6.6084003    179.79785    179.98706    5.3601217 
   50800       203200    9923.4733   -38153.359    277.40352  0.041013579   -28229.885    298.50792  -0.55219557 0.0034825645 -0.00014844009  -0.55220657    179.71785    179.70247    5.6287589 
   51000       204000    9839.2645   -38070.516    275.04952  0.051785739   -28231.251    299.44308   -3.9738549  0.027062229 -0.0014048454   -3.9739473    179.63785    179.52471    5.3216685 
   51200       204800    9804.2572   -37958.523    274.07092  0.012512883   -28154.266     222.6068   -2.8051037  0.017649953 0.00052214934   -2.8051593    179.55785     179.4781    4.8327349 
   51400       205600    9690.2454   -38092.305     270.8838 -0.050931676    -28402.06    470.98635   -7.6840601  0.046122303 0.00078667237   -7.6841985    179.47785     179.2587    4.4725193 
   51600       206400    9847.8493   -38142.188    275.28951 -0.060786307   -28294.339    357.92666    -10.42582  0.074425675 0.0077673653   -10.426089    179.39785    179.10036    3.7563261 
   51800       207200     9953.492   -38240.088    278.24267   0.15255343   -28286.596    348.71648   -7.5108578  0.053994211   0.01108095     -7.51106    179.31785    179.10365    3.1268461 
   52000       208000    9660.1894   -38013.213    270.04361   0.05923913   -28353.023    416.52065   -5.3442444  0.037693828 0.0026868129    -5.344378    179.23785    179.08555    2.5669681 
   52200       208800    9642.7702   -38049.979    269.55667 -0.020724296   -28407.209    473.00898   -1.5517648  0.010681117 0.00081948673   -1.5518017    179.15785    179.11391     2.206599 
   52400       209600    9745.2474   -38114.748    272.42134  -0.13134701   -28369.501    436.09675   0.97795679 -0.0067029863 -0.00041746402   0.97797985    179.07785    179.10619    2.2136941 
   52600       210400    9793.2099   -38044.867     273.7621  0.062204817   -28251.657    315.64731  -0.35140092 0.0026165126 0.00017588374  -0.35141071    178.99785    178.98821    2.3754218 
   52800       211200    9850.1181   -38032.938    275.35293  0.093194666    -28182.82    244.57795    1.2575233 -0.008229284 -0.00089026331    1.2575505    178.91785    178.95418      2.45555 
   53000       212000    9936.3231   -38076.518    277.76273   0.03315295   -28140.195    202.27203   0.78081562 -0.005042573 -7.9563343e-05   0.78083191    178.83785    178.86056     2.537227 
   53200       212800    9999.4267   -38087.719    279.52674 -0.094450422   -28088.292    152.91514  -0.78221902 0.0048393194 -0.00030301762  -0.78223405    178.75785     178.7359    2.4390115 
   53400       213600    9868.9789    -38131.09    275.88017  -0.10530066   -28262.111    327.28341   -4.3944694  0.026379452 0.00079055681   -4.3945486    178.67785    178.55269    2.2390552 
   53600       214400    9685.8223   -38218.779    270.76016 -0.022519384   -28532.956     596.1054   -3.7996942    0.0237491 -0.00040789092   -3.7997684    178.59785    178.48968    1.9799851 
   53800       215200    9843.1489   -38192.341    275.15811    0.0281285   -28349.193    411.34331   0.36616001 -0.0022206725 0.00011096932   0.36616676    178.51785    178.52871     1.946343 
   54000       216000    9920.3654   -37976.995    277.31664  0.039786084    -28056.63    119.86987    5.1312499 -0.033298282 0.00043397466     5.131358    178.43785    178.58486    2.0236191 
   54200       216800    9796.5941   -38086.837     273.8567 -0.070098998   -28290.243    356.01891    5.9095638 -0.041706266 -0.0015565702    5.9097112    178.35785     178.5271    2.4567504 
   54400       217600    9843.6995   -38093.957     275.1735 -0.0039761917   -28250.257    318.00375    2.9267304 -0.021953716 -0.0012199565     2.926813    178.27785    178.36187    2.7146736 
   54600       218400    9807.6854   -38184.569    274.16675 -0.0053600681   -28376.883    442.37953   -1.0605953 0.0081001012 0.00041668938   -1.0606263    178.19785    178.16795    2.7508127 
   54800       219200    9842.1999    -37925.34    275.13158   0.16356208    -28083.14    147.81062   0.55957223 -0.0043270285 -0.00018476966   0.55958899    178.11785    178.13424     2.772831 
   55000       220000    9792.0081   -38018.673    273.72851 -0.025374651   -28226.665    291.25306  -0.32279309 0.0023596689 0.00017262619  -0.32280176    178.03785    178.02903    2.8536508 
   55200       220800    9855.0652   -38110.395    275.49122 -0.052573182    -28255.33    320.63976  -0.84856266 0.0066710458 0.0011697531  -0.84858969    177.95785      177.934    2.6888838 
   55400       221600    9699.5915   -38113.809    271.14507  0.062074079   -28414.217    478.86639   0.12743202 -0.00094814776 -0.0002834172   0.12743587    177.87785    177.88189    2.6398061 
   55600       222400    9828.9859   -38120.423    274.76219 -0.041262385   -28291.438    357.83137   0.68170651 -0.0048384965 -0.0011919969   0.68172472    177.79785    177.81773    2.8250727 
   55800       223200    9693.3882   -38064.656    270.97166 -0.086568238   -28371.268    438.40007  -0.83249121 0.0058049187  0.001888588   -0.8325136    177.71785    177.69446    2.7323109 
   56000       224000    9850.0964   -37895.431    275.35232  0.029059659   -28045.335    112.43296    4.2231394 -0.024401142 -0.010935512    4.2232241    177.63785    177.75891    2.7215596 
   56200       224800    9797.1462   -37937.234    273.87214  0.040537123   -28140.087    206.28004    5.3090592 -0.028964211 -0.015897766     5.309162    177.55785    177.70994    3.1188064 
   56400       225600    9753.4135   -38063.872    272.64962  0.040222016   -28310.458    377.17617    4.5233747 -0.025367197 -0.0084339116    4.5234536    177.47785    177.60749    3.4319436 
   56600       226400    9854.3308   -38197.609    275.47069 -0.0070419972   -28343.278    409.22788    3.9683139 -0.022857342 -0.0080759569    3.9683879    177.39785    177.51163    3.7919499 
   56800       227200    9821.5479   -38090.335    274.55427  0.011928706   -28268.787    336.16201     4.292909 -0.026521502 -0.0096283039    4.2930017    177.31785    177.44091     4.200252 
   57000       228000    9847.3074   -38120.456    275.27436  0.039318438   -28273.148     341.3979    6.5987779 -0.046585049 -0.008049926    6.5989472    177.23785    177.42679    4.6168551 
   57200       228800     9842.269   -38048.237    275.13351  -0.14010516   -28205.968    274.09541    8.4193211 -0.061320161 -0.014985336    8.4195577    177.15785    177.39881    5.1481469 
   57400       229600    9821.3712   -38057.157    274.54933  0.014346803   -28235.786    303.73742    3.7030659 -0.028150219 -0.0043215673    3.7031755    177.07785    177.18405    5.6421266 
   57600       230400      9815.58   -38232.973    274.38744  0.014556601   -28417.393    482.89504   0.78075009 -0.0057671004 -0.0012367955   0.78077237    176.99785    177.02056    5.8427739 
   57800       231200    9694.8033   -38240.504    271.01122  0.074940424     -28545.7    610.10242  -0.74964143 0.0054924472  0.001536967  -0.74966312    176.91785    176.89683    5.8908665 
   58000       232000    9919.5343   -38215.591    277.29341   0.07642043   -28296.057    363.29387   -2.6607242  0.021251415 0.0038945023   -2.6608119    176.83785    176.76223    5.7401255 
   58200       232800    9805.3996   -38086.416    274.10286 -0.085671793   -28281.016    351.40819    1.9466661 -0.016463463 -0.0037486336    1.9467393    176.75785    176.81387    5.7333447 
   58400       233600    9976.3079   -38037.433    278.88047 -0.052089813   -28061.125    131.58665   -2.5814794  0.022481297 0.0045655357   -2.5815813    176.67785    176.60449    5.7322883 
   58600       234400    9806.7589   -38217.226    274.14085 -0.037898144   -28410.468    475.02115   -8.6965459  0.076993162  0.015213658      -8.6969    176.59785    176.34977    5.1496079 
   58800       235200    9840.4002   -38263.835    275.08127   0.14509126   -28423.434    485.90961   -8.4157827  0.073160928  0.011286811   -8.4161083    176.51785    176.27779    4.4547013 
   59000       236000    9738.1444   -38316.255    272.22278  -0.12848829   -28578.111    641.73171   -8.5855601  0.076361891 0.0097112816   -8.5859052    176.43785    176.19294    3.7231418 
   59200       236800    9871.9753   -38098.248    275.96393 -0.080367647   -28226.273     292.2853   -5.7538976  0.049661061 0.0064329032   -5.7541155    176.35785    176.19385    3.2444899 
   59400       237600    9865.9758   -37978.593    275.79622  -0.11960122   -28112.617    178.86757   -9.7463393  0.088093995 0.0077828275   -9.7467405    176.27785    175.99977    2.6935182 
   59600       238400    9920.4062   -38091.468    277.31778  0.028050193   -28171.062    235.22624   -11.043835  0.093754418 0.0059989684   -11.044234    176.19785     175.8827    1.9201221 
   59800       239200    10003.123   -38059.259    279.63008 -0.038119558   -28056.135    121.17297   -8.3502946  0.076818396 0.0062333245   -8.3506503    176.11785    175.87966    1.1388385 
   60000       240000    9780.6777   -38075.334    273.41177 -0.062651946   -28294.656    358.34832   -6.7440549  0.057781002 0.0072020712   -6.7443063    176.03785    175.84555   0.49479081 
   60200       240800    9742.7983   -38115.773    272.35288 -0.047525376   -28372.974    436.26997   -5.4948564  0.046676336 0.0027941111   -5.4950553    175.95785    175.80125 -0.038043338 
   60400       241600     9957.325   -38203.001    278.34982 0.0085616253   -28245.676    307.65814   -5.8357577  0.050580153 0.0043664215   -5.8359785    175.87785    175.71151  -0.46901613 
   60600       242400     9790.211   -38178.511    273.67827 -0.036393557     -28388.3    449.56877  -0.92222675 0.0076208471 0.00062763737  -0.92225845    175.79785     175.7719  -0.73800149 
   60800       243200    9893.9266     -38146.6    276.57756  0.038402595   -28252.673    312.40014    5.7275934 -0.048231136 -0.0063552816       5.7278    175.71785     175.8819  -0.60683681 
   61000       244000    9823.9377    -38017.88    274.62108  0.026618025   -28193.943    255.30449    8.1276314 -0.070365783 -0.014369109    8.1279487    175.63785    175.87048 -0.022931061 
   61200       244800    9820.3667   -38046.985    274.52125 -0.046153728   -28226.618    291.10506    11.030236 -0.087025015 -0.016311345    11.030591    175.55785    175.87341   0.77613001 
   61400       245600    9821.6249   -38111.955    274.55642 -0.011828744    -28290.33    357.60049    6.5371201 -0.053482418 -0.0098370745    6.5373463    175.47785    175.66503     1.527481 
   61600       246400    9826.2287   -38168.472    274.68512 -0.072794408   -28342.243    407.43278    7.1150816 -0.050538737 -0.0074962348     7.115265    175.39785    175.60154    2.0381868 
   61800       247200    9933.7039   -38322.839    277.68951   0.10018496   -28389.136    449.42901    7.1133994 -0.052754423 -0.006714198    7.1135982    175.31785     175.5215    2.5862586 
   62000       248000    9750.3056   -38282.754    272.56274  0.095912369   -28532.448    591.63967    5.7826191 -0.045296851 -0.0050639652    5.7827987    175.23785    175.40347    2.9956797 
   62200       248800    9939.0272   -38219.905    277.83832 0.0077563511   -28280.878    346.24242    3.4329095 -0.023303046 0.00013445785    3.4329886    175.15785    175.25633    3.4661174 
   62400       249600    9979.6948   -38145.103    278.97515  -0.14554455   -28165.408    235.03457 -0.054951938 0.00035985283 -6.7990038e-06 -0.054953116    175.07785    175.07668    3.7374606 
   62600       250400    9829.5109   -38102.029    274.77687 -0.077122396   -28272.518    341.48186    1.7524288 -0.011437637 -0.00017348575    1.7524661    174.99785    175.04832    3.7316604 
   62800       251200    9840.5315   -38243.482    275.08494  0.014776711    -28402.95    468.89914    3.5948145 -0.024573741 -0.0033962501    3.5949001    174.91785    175.02096    3.9821631 
   63000       252000    9848.3921   -38096.693    275.30468  0.043138664   -28248.301    311.39503    7.1005467 -0.045659035 -0.010098596    7.1007007    174.83785    175.04113    4.3247432 
   63200       252800    9854.8648   -38238.523    275.48562  0.092685832   -28383.658    449.19348    1.4634482 -0.010003377 -0.0018779435    1.4634836    174.75785    174.80006    4.7184106 
   63400       253600    9773.4313   -38336.027     273.2092  -0.12762114   -28562.596    630.89489    1.6947387  -0.01083418 -0.0027195823    1.6947755    174.67785    174.72667    4.8710904 
   63600       254400     9799.032   -38063.422    273.92485 -0.013255847    -28264.39     333.2854    2.1719413  -0.01489573 -0.0037860717    2.1719957    174.59785    174.66031    5.0559057 
   63800       255200    9744.7916   -38273.101     272.4086 -0.027535412   -28528.309    595.85261  -0.75120976 0.0051682846 0.0007681568  -0.75122793    174.51785    174.49679    5.0510274 
   64000       256000    9845.0252   -38251.539    275.21056  0.030269712   -28406.514    472.62294   -1.1788784 0.0086945526 0.00081067419   -1.1789108    174.43785    174.40457    5.0046071 
   64200       256800    9801.2984   -38287.117    273.98821 -0.014340706   -28485.818     551.1172   -2.4189989  0.017424231 0.00072005529   -2.4190618    174.35785    174.28913    4.9088825 
   64400       257600    9892.6783   -38170.468    276.54267  0.021767142    -28277.79    344.03733   -2.3549619  0.017216202 2.0100112e-05   -2.3550248    174.27785    174.21096    4.7681751 
   64600       258400    9834.7325   -38103.844    274.92284 -0.024661749   -28269.111    336.43782   -2.3354081  0.017236511 0.0010885853    -2.335472    174.19785    174.13152    4.5218778 
   64800       259200    10047.978   -37940.105    280.88396 -0.040076713   -27892.127   -39.796115    -0.670816 0.0054654753 0.00061224255  -0.67083855    174.11785    174.09908    4.3592109 
   65000       260000     9895.975   -38164.412    276.63482 -0.046758674   -28268.437    334.35445   -4.5087216  0.036798177 0.0034270784   -4.5088731    174.03785    173.90942    4.1660846 
   65200       260800    9901.6159   -38156.655    276.79251    0.1433991   -28255.039    319.57502   -3.2547742   0.02583125 0.0015326445    -3.254877    173.95785    173.86525    3.8180824 
   65400       261600    9857.6371   -38221.377    275.56312 -0.011600811    -28363.74    428.72558    1.5050968 -0.011293374 -0.00061954193    1.5051392    173.87785    173.92125    3.7716039 
   65600       262400    9870.1649   -38196.179    275.91332 -0.024110279   -28326.014    392.40519    1.7961014  -0.01377854 0.00052324536    1.7961543    173.79785    173.84957    3.8609496 
   65800       263200    9881.8022    -38215.27    276.23863  -0.04336641   -28333.467    400.15405   -2.1551885  0.016810721 0.0014375159   -2.1552545    173.71785    173.65667    3.7628367 
   66000       264000    9813.9779   -38100.302    274.34265   0.01653136   -28286.325    352.23464    2.7207122 -0.021937226 -0.0030795863    2.7208024    173.63785    173.71599     3.790277 
   66200       264800    9914.4922    -38229.77    277.15246  -0.01496859   -28315.278    381.16532    2.0915132 -0.018637872 -0.0030146689    2.0915984    173.55785    173.61801    4.0158367 
   66400       265600    9726.7967   -38258.165    271.90557  0.026378392   -28531.368    596.95532   -1.3065918  0.011082781 0.0022197184   -1.3066406    173.47785    173.44092    4.0415937 
   66600       266400    9699.7932   -38102.151    271.15071  0.059872215   -28402.358    467.19823    -3.756765  0.032256255 0.0090095673   -3.7569143    173.39785    173.29091    3.8433408 
   66800       267200    9732.7626   -38259.058    272.07234   0.18426897   -28526.296    592.49772   -4.0146551  0.037700914 0.0097646909    -4.014844    173.31785    173.20354    3.4979987 
   67000       268000    9810.2441   -38166.931    274.23828  0.011466724   -28356.687    422.38218   -1.3108985  0.012514836 0.0027532279   -1.3109611    173.23785    173.20079    3.2637001 
   67200       268800    9933.5983   -38247.579    277.68656   0.11242209   -28313.981    379.34257   -3.2336002  0.030317091 0.0071232549   -3.2337501    173.15785    173.06586    3.1366522 
   67400       269600    9838.0299   -38094.748    275.01501 0.0043019924   -28256.718     322.2637   -1.1894542  0.012305333 0.0027434832    -1.189521    173.07785    173.04426    2.9333323 
   67600       270400     9697.971   -38214.531    271.09977 -0.086606935    -28516.56    581.12197  -0.45061535 0.0045901572 0.0010220832  -0.45063988    172.99785    172.98537    2.7902664 
   67800       271200    9833.3736   -38070.797    274.88485  0.079849343   -28237.424     301.6467   -2.2502694  0.022151019 0.0052515573   -2.2503845    172.91785    172.85395    2.6954932 
   68000       272000    9815.8495   -38241.861    274.39498 -0.059095672   -28426.011    490.03472  -0.15583051 0.0015832824 0.00040445086  -0.15583908    172.83785     172.8338    2.5318946 
   68200       272800    9916.5682   -38243.469    277.21049 -0.077261969   -28326.901    390.53532 -0.095368954 0.00093595846 0.00019291403 -0.095373742    172.75785    172.75552    2.5542542 
   68400       273600    9864.4932   -38337.324    275.75477  0.030295961   -28472.831    533.70876     3.776335  -0.03745934 -0.0070628272    3.7765274    172.67785    172.78615    2.7055425 
   68600       274400    9880.3121   -38207.341    276.19698   0.22518681   -28327.029    387.13162    1.7191776 -0.014430838 -0.0030382728    1.7192408    172.59785    172.64737    2.8940687 
   68800       275200    9941.3352   -38131.457    277.90284 -0.062190326   -28190.122    254.41319    5.2238137 -0.046127688 -0.010752231    5.2240284    172.51785    172.66751    3.1702351 
   69000       276000    9726.5642   -38060.455    271.89907  -0.15243459   -28333.891    403.30626    3.2285169 -0.027181573 -0.0062128774    3.2286373    172.43785     172.5305    3.3979504 
   69200       276800    9870.0253   -38207.241    275.90942  -0.13012109   -28337.216    404.78237    4.8133401 -0.041929397 -0.0069634938    4.8135278    172.35785    172.49578    3.7090934 
   69400       277600    9823.7829   -38288.518    274.61675 -0.047658078   -28464.735    527.54333  -0.10167091 0.00094489883 0.00020037829   -0.1016755    172.27785    172.27534     3.955055 
   69600       278400    9931.5212   -38386.004    277.62849   0.11409613   -28454.483    513.09328    -2.749105  0.026846521 0.0045341238   -2.7492398    172.19785     172.1197     3.891695 
   69800       279200    9848.0386   -38288.332     275.2948  0.061441676   -28440.294    503.11497  -0.13076386 0.0012159549 0.00038500532  -0.13077008    172.11785    172.11451    3.7496273 
   70000       280000    9725.7831   -38093.493    271.87723 0.00071033076    -28367.71    436.24152     5.873763 -0.056559668 -0.022936955    5.8740801    172.03785    172.20608    3.8500468 
   70200       280800    9897.4666   -38156.177    276.67652  -0.12040709    -28258.71    327.70523    4.8716953 -0.048479703 -0.017497087     4.871968    171.95785    172.09745      4.31966 
   70400       281600    9830.4903   -37982.573    274.80425  0.019989799   -28152.083    219.30508   -3.2267396  0.032578607  0.013002882   -3.2269303    171.87785    171.78605    4.4032308 
   70600       282400     9866.299   -38294.804    275.80525  0.020678613   -28428.505    491.67248   -4.0359977  0.040059592  0.013245774   -4.0362183    171.79785    171.68293    4.1753359 
   70800       283200    9705.3051   -38184.851    271.30479   0.10443254   -28479.546    540.72656     1.137119  -0.01199287 -0.0034867562    1.1371876    171.71785    171.75074    4.0943972 
   71000       284000    9851.4739    -38203.83    275.39083  0.026583463   -28352.356    416.83058     1.824716   -0.0199245 -0.0050386101    1.8248318    171.63785    171.69039    4.2136811 
   71200       284800    9724.9247   -38075.712    271.85324 -0.056608557   -28350.787    418.65491    1.8919801 -0.019129891 -0.0030995527    1.8920794    171.55785    171.61231    4.2599308 
   71400       285600    9868.0541   -38044.575    275.85432  0.068544638   -28176.521    243.71168    3.2102627 -0.035751196 -0.0055036478    3.2104665    171.47785    171.56998    4.3649672 
   71600       286400    9934.0786   -38209.413    277.69998  0.059933578   -28275.335     341.0347    3.9400448 -0.038897948 -0.0057230669     3.940241    171.39785    171.51083    4.7348836 
   71800       287200    9845.5683   -38115.836    275.22574 -0.011323954   -28270.267    335.47764    4.6066418 -0.047690606 -0.0074511912    4.6068947    171.31785    171.44988    5.1832156 
   72000       288000    9782.7696   -38265.028    273.47025 -0.043139347   -28482.258    549.87487    3.1897269 -0.036057292 -0.0051205171    3.1899348    171.23785    171.32939    5.5298961 
   72200       288800    9820.0236   -38200.965    274.51166 -0.084672407   -28380.942    451.30115   -2.3651637  0.023578415 0.0060201632   -2.3652889    171.15785    171.09067    5.5742166 
   72400       289600    9824.5871   -38061.453    274.63923 -0.040802733   -28236.866    306.69311   -3.8317033   0.03984312  0.010925356    -3.831926    171.07785    170.96877    5.2262974 
   72600       290400    9813.8353   -38082.281    274.33867 -0.043829482   -28268.446     335.9464    -7.020574  0.076542523  0.022385272    -7.021027    170.99785    170.79765    4.8444607 
   72800       291200    9957.4034   -38004.863    278.35201  0.093228334    -28047.46    112.05707   -10.150329   0.10761742  0.035437663   -10.150962    170.91785    170.62822    4.2543093 
   73000       292000    9798.4533     -38126.6    273.90868 -0.066087493   -28328.147    392.82049   -5.6797446  0.064696211  0.019452018   -5.6801464    170.83785    170.67596    3.5412355 
   73200       292800    9774.5286   -38069.016    273.23988 -0.085795902   -28294.487    362.27548   -1.8041427   0.02148488 0.0054701105    -1.804279    170.75785     170.7067    3.2353983 
   73400       293600    9727.2928   -38105.579    271.91944  -0.12028098   -28378.286    444.76112    1.4464578 -0.017321799 -0.0027671849    1.4465642    170.67785    170.71958    3.1914488 
   73600       294400    9842.1228   -38099.224    275.12943 -0.026652847   -28257.101    323.10478    2.6770662 -0.030480461 -0.0064015081    2.6772473    170.59785    170.67474    3.4749072 
   73800       295200    9839.3494   -38337.116     275.0519  0.042308626   -28497.767    561.56677            0            0            0            0    170.51785    170.51879    3.5724007 
   74000       296000    9809.9638    -38220.02    274.23044  0.060703844   -28410.056     474.0595    3.2121507 -0.034591508 -0.011339559     3.212357    170.43785    170.53003    3.6637616 
   74200       296800    9849.2787    -38116.79    275.32947 -0.040387263   -28267.511    333.44912   0.65017473 -0.0073637687 -0.0022079044   0.65022018    170.35785    170.37683    3.8314775 
   74400       297600      9863.43    -38083.05    275.72505 -0.023538298    -28219.62    287.31237   -3.0070703  0.035142252  0.012624027   -3.0073021    170.27785    170.19233     3.708507 
   74600       298400    9997.7499   -38174.911    279.47987 -0.008460976   -28177.161     243.1163   -2.8973974   0.03529421  0.011407327   -2.8976348    170.19785    170.11546    3.4820418 
   74800       299200    9822.0841   -38129.869    274.56926  0.053955406   -28307.785    371.97027   -4.7262473  0.058467728  0.021686033   -4.7266587    170.11785     169.9832    3.2017282 
   75000       300000    9874.8021    -38082.18    276.04295 -0.0045867434   -28207.378    272.80084   -4.2505527  0.051249156  0.018199585   -4.2509006    170.03785     169.9168    2.8024868 
   75200       300800    9984.8247   -38127.772    279.11855  -0.10018046   -28142.948    207.49703   -2.6813318  0.032183561  0.011090022   -2.6815479    169.95785    169.88163     2.541982 
   75400       301600     9905.872    -38160.19    276.91149  0.087277587   -28254.318    317.64716   -2.9167501  0.034017774  0.013437232   -2.9169794    169.87785    169.79491    2.2480969 
   75600       302400    9841.5819    -38185.16     275.1143  0.077425899   -28343.578    406.09466  -0.98877388  0.011430266 0.0044291634  -0.98884986    169.79785       169.77    1.9865918 
   75800       303200    9972.3038   -38350.687    278.76854  0.051076182   -28378.383     440.0618  -0.68460693 0.0080168064 0.0032264665  -0.68466147    169.71785    169.69869    2.0445686 
   76000       304000    9900.9052   -38225.729    276.77264 -0.0083684104   -28324.824    387.48478   -3.2297715  0.034943497  0.014336827   -3.2299923    169.63785    169.54596    1.8973226 
   76200       304800    9867.8516   -38090.877    275.84866 -0.063732049   -28223.026    288.72374    2.2629197 -0.025214166 -0.0088907514    2.2630776    169.55785    169.62291    1.9148123 
   76400       305600    9789.9233   -38145.675    273.67023  -0.15740069   -28355.752    422.35789    3.9032279 -0.045791606 -0.019124703    3.9035433    169.47785    169.58978    2.1045374 
   76600       306400    9844.9683   -38191.918    275.20897   0.13126845    -28346.95    410.87973    3.8575622 -0.046391017 -0.022590995    3.8579073    169.39785    169.50848    2.4329403 
   76800       307200    9845.4783   -38259.979    275.22323   0.10241332     -28414.5    475.72525      3.05026 -0.035968036 -0.016704045    3.0505178    169.31785    169.40541    2.6766684 
   77000       308000    9843.6333    -38305.47    275.17165 -0.033663666   -28461.837    521.97602    5.9698498 -0.076803175 -0.031796277    5.9704285    169.23785    169.40883    3.0722085 
   77200       308800    9737.6784   -38217.024    272.20976  0.039892875   -28479.346     541.7705     1.691855 -0.020020284 -0.0096465076     1.692001    169.15785    169.20659    3.3338406 
   77400       309600    9876.0167   -38163.929    276.07691 -0.075916084   -28287.913    354.01164   -2.5037211  0.030612077  0.013164272   -2.5039429    169.07785    169.00671    3.1505026 
   77600       310400    9795.8735   -37984.924    273.83656 0.00035572726    -28189.05    257.23263  -0.23014337 0.0026122018 0.0013240357    -0.230162    168.99785    168.99167    3.0438924 
   77800       311200    9885.5559   -37968.777    276.34357  0.025496087   -28083.221    151.62954            0            0            0            0    168.91785    168.91914    3.0745111 
   78000       312000     9767.331   -38197.166    273.03868  0.090892639   -28429.835    495.56672    3.7161942 -0.044135656 -0.016405542    3.7164925    168.83785    168.94443    3.1910715 
   78200       312800    9946.2267   -38206.073    278.03958   0.08959329   -28259.846    321.96805    4.3863097 -0.050940625 -0.018548357    4.3866447    168.75785    168.88358    3.4345068 
   78400       313600    9837.4211   -38367.252    274.99799  0.058537437   -28529.831    592.88725    4.7023495 -0.056751829 -0.020434258    4.7027364    168.67785    168.81261    3.8513034 
   78600       314400     9952.355   -38183.575    278.21089  -0.10487944    -28231.22    297.63183    2.2225748 -0.027030856 -0.0094833222    2.2227594    168.59785    168.66176    4.1816802 
   78800       315200    9846.8649   -38232.532    275.26199 -0.039523937   -28385.667     453.3314  -0.54721735 0.0063917885 0.0024180407  -0.54726002    168.51785    168.50261    4.2422433 
   79000       316000    9870.7854   -38158.514    275.93067 -0.040548094   -28287.728    355.96062  -0.27075774 0.0029873582 0.0012083612  -0.27077691    168.43785    168.43051    4.2355862 
   79200       316800    9853.4915   -38282.315    275.44723  0.094039224   -28428.824    495.08823  -0.30555545 0.0035554399 0.0014682243  -0.30557966    168.35785    168.34952    4.1987564 
   79400       317600     9991.736   -38200.524    279.31176 -0.010977019   -28208.788    274.16364    0.6842142 -0.008107715 -0.0030503848   0.68426904    168.27785     168.2978     4.128362 
   79600       318400     9741.641   -38228.026    272.32053   0.06261803   -28486.385    551.05539  -0.35845899 0.0043145835 0.0014338335  -0.35848782    168.19785    168.18801    4.2629756 
   79800       319200     9863.944    -38266.48    275.73942  0.057068158   -28402.536    467.86567  -0.15140589 0.0017909071 0.00069634199  -0.15141808    168.11785    168.11392      4.41026 
   80000       320000    9952.4762   -38126.523    278.21428  0.060131199   -28174.046    241.28937    0.4840975 -0.0057480435 -0.0020392554   0.48413592    168.03785    168.05208    4.4380211 
   80200       320800    9881.6038   -38091.915    276.23309 -0.027128369   -28210.311    278.31557    2.1284822  -0.02485802 -0.0075955886    2.1286409    167.95785    168.01907    4.4991078 
   80400       321600    9889.2063   -38171.685    276.44561  0.011015618   -28282.479    348.66462  -0.86686197  0.010383411  0.002712231   -0.8669284    167.87785    167.85348    4.4839086 
   80600       322400     9901.819    -38126.77    276.79819  0.030208184   -28224.951    290.16772   -1.8878196  0.022462487 0.0067382645   -1.8879653    167.79785    167.74431     4.260055 
   80800       323200    9745.7105   -38215.146    272.43429 -0.023874219   -28469.436    536.15655  -0.92451071  0.011437888 0.0032312236  -0.92458711    167.71785    167.69183    4.1869743 
   81000       324000    9839.3329   -38342.687    275.05144  0.009245298   -28503.354    569.82643   0.34415018 -0.0043396587 -0.0012903185   0.34417996    167.63785    167.64808    4.1197333 
   81200       324800    9779.7702   -38137.988     273.3864 -0.010874018   -28358.218    423.63111   0.92649728 -0.011699368 -0.0033579971   0.92657723    167.55785    167.58472    4.1349535 
   81400       325600    9817.0289    -38373.19    274.42794  0.011807861   -28556.161    619.58279   -4.8183695  0.063534766  0.018612371   -4.8188243    167.47785    167.34057    3.8146614 
   81600       326400    9766.3644   -38390.039    273.01166  0.069202536   -28623.675    684.29973   -3.7245628  0.047533985   0.01499887   -3.7248963    167.39785    167.29182    3.4713789 
   81800       327200    9885.1151   -38243.998    276.33124 0.00039348482   -28358.883     420.4761   -2.6608404  0.032044223 0.0099542405    -2.661052    167.31785    167.24222     3.350501 
   82000       328000    9805.2328   -38223.324    274.09819  -0.01475045   -28418.092    485.04053  -0.89020503  0.010553544 0.0034313101  -0.89027419    167.23785    167.21281    3.1348034 
   82200       328800    9837.4509    -38227.66    274.99883 -0.056450768   -28390.209      459.016   0.53604421 -0.0059650778 -0.0015002502   0.53607949    167.15785    167.17357    3.1904355 
   82400       329600    9805.9159   -38127.442    274.11729 -0.055575998   -28321.526     390.0384     6.007946  -0.06714296 -0.015275759    6.0083406    167.07785    167.24992     3.246287 
   82600       330400    9877.3922   -38120.745    276.11536 -0.021664978   -28243.353    308.45303     4.482526 -0.050025631 -0.014625177     4.482829    166.99785    167.12633    3.7815859 
   82800       331200    9828.3475   -38195.037    274.74435  0.095074726   -28366.689    430.30185  -0.73693943 0.0079056157 0.0023724234  -0.73698566    166.91785    166.89719    3.9058079 
   83000       332000      9826.23   -38120.376    274.68515   0.10468352   -28294.146    360.14394   -2.7808037  0.029786994  0.011383385   -2.7809865    166.83785    166.75879    3.6653663 
   83200       332800    9898.2696   -38125.009    276.69897 -0.011465764    -28226.74    296.57174   -1.9071451  0.021811386 0.0070184377   -1.9072827    166.75785    166.70376     3.524665 
   83400       333600    9790.7612   -38028.991    273.69365 -0.046203781   -28238.229    307.90933   -2.9891893  0.033760646 0.0092508869   -2.9893942    166.67785    166.59284    3.2516102 
   83600       334400    9863.2759   -38216.169    275.72075 -0.029368877   -28352.893    418.88469  -0.64873751 0.0071920886 0.0019917343  -0.64878043    166.59785    166.57971    3.1265253 
   83800       335200    9753.3794   -38357.459    272.64867  0.014909799    -28604.08    668.42111   -1.8856302  0.020630746 0.0057408543   -1.8857518    166.51785    166.46437    3.0558842 
   84000       336000    9813.9919   -38364.111    274.34305  0.063970981   -28550.119    613.47816    1.1018741 -0.012329258 -0.0027449449    1.1019465    166.43785    166.46973    2.9765853 
   84200       336800    9781.1531   -38111.791    273.42506  0.020776826   -28330.638    396.67974    1.2527085 -0.013555994 -0.0038652412    1.2527878    166.35785    166.39404    3.1530249 
   84400       337600    10041.055   -38157.544    280.69043  -0.12802175   -28116.489    182.95355   -4.5194462  0.047830259  0.014659798   -4.5197231    166.27785    166.14911      2.96358 
   84600       338400    9933.3119   -38139.709    277.67855 -0.028023843   -28206.397    271.99993   -3.0056563  0.032986713 0.0098970299   -3.0058536    166.19785    166.11237    2.5893988 
   84800       339200    9813.9673   -38145.391    274.34236 -0.0062944927   -28331.424    394.30834  -0.88311903 0.0098227529 0.0027289686  -0.88317787    166.11785    166.09302     2.475483 
   85000       340000    10054.058   -38146.766    281.05393 -0.018593833   -28092.707    154.23767   -4.0573041   0.04295701  0.010845978    -4.057546    166.03785    165.92232    2.3415913 
   85200       340800    9842.7769   -38206.644    275.14771  0.020895136   -28363.867    426.82685   -0.4635352 0.0049024496 0.0011816468  -0.46356263    165.95785      165.945    2.0363256 
   85400       341600    9930.9729   -38276.472    277.61317 -0.068136676   -28345.499    409.51994    3.6041126 -0.034759321 -0.010115033    3.6042944    165.87785    165.98123    2.1399346 
   85600       342400    9867.7134   -38201.098    275.84479  -0.11081199   -28333.385    396.99381   0.15626527 -0.0015572996 -0.00052666012   0.15627392    165.79785    165.80271    2.3302802 
   85800       343200    9840.6868   -38284.394    275.08928  0.048361711   -28443.707    507.65539   -1.0361256 0.0095543802 0.0042269925   -1.0361783    165.71785    165.68864    2.3485364 
   86000       344000    9717.4272   -38257.979    271.64365  0.021074074   -28540.552    604.58664    2.4687664 -0.023625672 -0.0098928681    2.4688993    165.63785    165.70879    2.3365716 
   86200       344800    10073.848   -38153.923    281.60714   0.02172956   -28080.075    143.85939     3.777212 -0.035528507 -0.011519399    3.7773967    165.55785    165.66618    2.5552975 
   86400       345600     9796.533    -38185.35      273.855 -0.028926521   -28388.817    454.92633   -3.4459123  0.035553372  0.010151835   -3.4461106    165.47785    165.37979    2.5976744 
   86600       346400     9794.477   -38055.304    273.79752  0.019614116   -28260.827    326.60311    1.6005019 -0.017051747 -0.0052095941    1.6006012    165.39785    165.44398    2.5226314 
   86800       347200      9736.49   -38268.699    272.17654  0.047469883   -28532.209    595.55812    4.5691525 -0.048398954 -0.013637435    4.5694291    165.31785     165.4488    2.8800262 
   87000       348000    9776.0204   -38207.465    273.28158  0.069942291   -28431.444    494.25942    4.6260394 -0.048442262 -0.012766245    4.6263107    165.23785    165.37043    3.0783616 
   87200       348800    9852.3471   -38065.204    275.41524   0.02296408   -28212.857    277.56685    6.5983455  -0.07181171 -0.015422361    6.5987542    165.15785    165.34679    3.5370248 
   87400       349600     9947.671   -38288.461    278.07995 -0.090578882    -28340.79    407.75357    5.8344461 -0.068188122 -0.013193891    5.8348595    165.07785    165.24496    3.9758402 
   87600       350400    9912.2079   -38178.854    277.08861  0.077681174   -28266.646     332.9402    7.5451299 -0.087358131 -0.017899929    7.5456568    164.99785    165.21384    4.5160991 
   87800       351200    9596.3259    -38171.16    268.25835 -0.061873426   -28574.834    641.53388     6.941107 -0.085999492 -0.014998445    6.9416559    164.91785    165.11658    5.1465696 
   88000       352000    9852.3103   -38198.557    275.41421 -0.0010792586   -28346.247    413.10838   0.99817539 -0.012647245 -0.0023867892   0.99825837    164.83785    164.86677    5.5294226 
   88200       352800    9772.7183   -38129.998    273.18927  0.059613234    -28357.28    423.24687   -0.3339486   0.00396415 0.00074539586  -0.33397296    164.75785    164.74871     5.535385 
   88400       353600    9785.8178   -38283.527    273.55546  0.002604626   -28497.709    562.88664   -1.8867391  0.022351011 0.0039028201   -1.8868755    164.67785    164.62434    5.4972164 
   88600       354400    9783.8778   -38322.093    273.50123 -0.059274071   -28538.216    603.69409   -4.5578015  0.053330404 0.0086004885   -4.5581216    164.59785    164.46802    5.2516738 
   88800       355200     9944.117   -38211.755     277.9806  -0.13493213   -28267.638     332.7616   -7.1561203   0.08221941  0.017296517   -7.1566135    164.51785    164.31377    4.7210554 
   89000       356000    9807.5903   -38092.923    274.16409 -0.058472046   -28285.332    351.02623   -9.1148838   0.10519149  0.019994518   -9.1155127    164.43785    164.17781    4.0863397 
   89200       356800    9897.5451    -38198.69    276.67872 -0.019735536   -28301.145    364.17994   -11.077874   0.12093259  0.016093362   -11.078546    164.35785    164.04172    3.2569921 
   89400       357600     9978.882   -38157.522    278.95243   0.01009215    -28178.64    240.95639   -7.5488653  0.083824448  0.013594733    -7.549343    164.27785    164.06255    2.4974494 
   89600       358400    9780.5741   -38203.004    273.40888  0.063497961    -28422.43    484.39827   -2.7406049  0.031870878 0.0071758685   -2.7407996    164.19785    164.11994    2.1184701 
   89800       359200    9753.6655   -38260.937    272.65667  0.065958599   -28507.272    570.38549   -3.3659471  0.037984071 0.0098719895   -3.3661759    164.11785    164.02207    1.8211986 
   90000       360000    9737.1064   -38058.347    272.19377   0.03550501   -28321.241    385.24166    2.2242346 -0.025533891  -0.00728414     2.224393    164.03785     164.1018    1.9033815 
   90200       360800    9931.8369   -38141.299    277.63732 -0.018735226   -28209.462    273.25487    -2.271895  0.024829306 0.0082582171   -2.2720457    163.95785    163.89333    1.9616485 
   90400       361600    9879.3698   -38345.754    276.17064    0.1218756   -28466.385    528.14637   0.16010738 -0.0018012609 -0.00053769161   0.16011841    163.87785    163.88282    1.7841925 
   90600       362400    9842.2569   -38183.726    275.13317  0.028726432   -28341.469    403.95322    1.3920096 -0.016597136 -0.0052609771    1.3921184    163.79785    163.83802    1.9175856 
   90800       363200    9925.2951   -38159.016    277.45445  0.099522505   -28233.721    298.05036    3.2003593  -0.03753712 -0.010388191    3.2005963    163.71785     163.8097    2.1430776 
   91000       364000    9807.8301   -38221.631     274.1708 -0.043801271   -28413.801    479.05728    2.2446113 -0.026880256 -0.0052425555    2.2447783    163.63785    163.70239    2.3841321 
   91200       364800    10012.624   -38265.355    279.89568 -0.031080219    -28252.73    317.34384    6.2196166 -0.074643095 -0.0093291871    6.2200715    163.55785    163.73597      2.78148 
   91400       365600      9786.35   -38152.114    273.57034 0.0075276868   -28365.764    429.10666    7.5869728 -0.091696358 -0.014381135    7.5875405    163.47785    163.69504    3.4305607 
   91600       366400    9819.9009   -38264.829    274.50823 -0.0043289394   -28444.928    510.58015    4.6631173 -0.056840394 -0.0091655149    4.6634727    163.39785    163.53149    3.8547053 
   91800       367200     9811.239   -38264.447    274.26609  0.027744291   -28453.208    519.39116    3.6322046 -0.043472198 -0.009496845    3.6324772    163.31785    163.42203    4.1581746 
   92000       368000    9783.8993    -38102.37    273.50183  0.032492887   -28318.471    384.27898    1.0819381 -0.012552063 -0.002765467    1.0820144    163.23785    163.26916    4.3160349 
   92200       368800    9838.9967    -38175.01    275.04204 -0.013394935   -28336.013     402.8791     1.208099 -0.013918955 -0.0016804631    1.2081803    163.15785    163.19277    4.4035088 
   92400       369600    9696.3245    -38368.08    271.05374 -0.049453517   -28671.756    738.13218  -0.74400964 0.0079804567 0.0011504119  -0.74405333    163.07785    163.05699    4.4482379 
   92600       370400    9858.0768   -38333.936    275.57541  -0.06946023   -28475.859    542.17511   -1.4285287  0.015829267 0.0018003455   -1.4286175    162.99785    162.95743    4.3150801 
   92800       371200    9827.9355   -38297.259    274.73283 -0.091535404   -28469.324    533.84346   -2.6335894  0.028055853 0.0015403655   -2.6337393    162.91785      162.843    4.0613474 
   93000       372000    9838.0361   -38374.213    275.01518 -0.056872307   -28536.177    601.54887            0            0            0            0    162.83785    162.83823    3.8738024 
   93200       372800    9949.2276   -38210.353    278.12346  0.043202025   -28261.125    326.86234  0.040196548 -0.00048093608 -5.2055036e-05  0.040199459    162.75785     162.7594    3.9487288 
   93400       373600    9812.8972   -38237.042    274.31244  0.083954277   -28424.145    489.88864    1.1975582 -0.013728557 -0.0014871107    1.1976378    162.67785    162.71247    3.9766854 
   93600       374400    9743.6492    -38352.34    272.37667 -0.083167513   -28608.691    673.17389    2.4870189 -0.029582582 -0.004046198    2.4871981    162.59785    162.66931     4.158596 
   93800       375200    9797.3003   -38275.778    273.87645 -0.059546008   -28478.478    542.99662    3.8425686 -0.047846143 -0.0059188426     3.842871    162.51785    162.62805    4.3646722 
   94000       376000    9782.7533   -38410.699    273.46979 -0.065743982   -28627.946    692.19633    0.7500108 -0.0091807686 -0.0012739583   0.75006807    162.43785    162.45968    4.5036762 
   94200       376800    9809.1428   -38185.781    274.20749 -0.056702778   -28376.639    442.29515  -0.63389154 0.0076810599 0.0015984797  -0.63394009    162.35785    162.34014    4.4492756 
   94400       377600    9763.0817   -38120.225    272.91989  0.058318785   -28357.143    423.66226    2.7440614 -0.033940464 -0.0065205499    2.7442791    162.27785    162.35666    4.6536041 
   94600       378400    9929.7442    -38090.74    277.57882 -0.023295439   -28160.996    226.54112    0.4065386 -0.0053278068 -0.00079528262   0.40657429    162.19785    162.20987    4.8633918 
   94800       379200    9815.8554   -38271.792    274.39514   0.10500222   -28455.937    520.93115   -2.5192977    0.0320325 0.0063939114   -2.5195094    162.11785    162.04626    4.7887069 
   95000       380000    9860.3424   -38187.657    275.63874  0.072715403   -28327.315    391.85955   -5.7189098  0.069720114  0.013652578   -5.7193511    162.03785    161.87484    4.3531908 
   95200       380800    9733.0971   -38281.897    272.08169  -0.11588153     -28548.8    612.17223   -8.5910624   0.10612927  0.017490223   -8.5917357    161.95785    161.71277    3.7348882 
   95400       381600     10014.95   -38351.266    279.96069  0.014760243   -28336.316    400.15564   -8.5860834  0.096406027  0.019567397    -8.586647    161.87785    161.63292    3.1233046 
   95600       382400    9798.7504   -38245.161    273.91698  -0.11582271   -28446.411    510.80151   -4.6042979  0.051120919  0.010592139   -4.6045938    161.79785    161.66669    2.5873663 
   95800       383200     9929.898   -38272.924    277.58312 0.0018074407   -28343.026    406.80272   -5.3077636  0.064183122 0.0098783081   -5.3081608    161.71785    161.56659    2.1132837 
   96000       384000    9750.8599   -38186.104    272.57824  0.013004432   -28435.244    498.24682  -0.19811776 0.0023686455 0.0005316985  -0.19813263    161.63785    161.63259    1.8872631 
   96200       384800     9804.385   -38256.474    274.07449  0.051187433   -28452.089    514.21362 -0.059068328 0.00070069473 0.00017583547 -0.059072745    161.55785    161.55656    1.8483231 
   96400       385600    9898.6095   -38260.402    276.70847  0.010242793   -28361.793    424.20044  -0.97304872   0.01169549  0.002752906   -0.9731229    161.47785    161.45045     1.852776 
   96600       386400    9922.0476   -38213.201    277.36367  0.025708462   -28291.154    353.91367    5.9608342 -0.072996331 -0.021058786    5.9613183    161.39785    161.56857    2.0574953 
   96800       387200    9744.5811   -38309.713    272.40272 -0.051302793   -28565.132     628.7339   0.20159731 -0.002576419 -0.00071255476   0.20161503    161.31785    161.32401    2.2758995 
   97000       388000    9954.7031    -38084.25    278.27653 -0.0049992797   -28129.546    192.05766    2.3897741 -0.028752721 -0.0080344282    2.3899605    161.23785    161.30653     2.283127 
   97200       388800    9836.1562   -38145.016    274.96263 -0.068886393   -28308.859    373.23753    6.4561866 -0.082937718 -0.018429187    6.4567456    161.15785    161.34273    2.6628225 
   97400       389600    9945.9403   -38271.982    278.03157   0.03906821   -28326.042    390.95092    4.6725765  -0.05986606 -0.017775995    4.6729938    161.07785    161.21176    3.1315081 
   97600       390400    9877.7069   -38293.415    276.12415 -0.0017810461   -28415.708    480.59652    5.4449146 -0.067359737 -0.020308337    5.4453691    160.99785    161.15383    3.4814969 
   97800       391200    9879.8269   -38227.083    276.18342  0.054113139   -28347.256    413.53606     3.598534 -0.044215972 -0.012809795    3.5988285    160.91785    161.02107    3.8713776 
   98000       392000    9829.4824   -38263.137    274.77607 -0.030390913   -28433.654    499.93552    2.4688075  -0.02923098 -0.0091546727    2.4689975    160.83785    160.90879    4.1224556 
   98200       392800    9766.3038   -38226.912    273.00996 0.0027472621   -28460.608    525.58301    2.3745819 -0.027684295 -0.0086396277     2.374759    160.75785     160.8261    4.2611458 
   98400       393600    9857.3928   -38171.485    275.55629   0.10786949   -28314.092    378.36709    1.4326001 -0.016604912 -0.0063996788    1.4327106    160.67785    160.71918    4.3702885 
   98600       394400    9910.3703   -38085.039    277.03723 -0.021707295   -28174.669    240.38519  -0.27159367 0.0033070948 0.0011220371  -0.27161612    160.59785    160.59049    4.4379481 
   98800       395200    9781.2554   -38363.942    273.42792  0.010761667   -28582.686    649.20494   -3.8322628   0.04852071  0.016891122   -3.8326072    160.51785    160.40875    4.2398069 
   99000       396000    9818.6301    -38234.18    274.47271  0.013032795   -28415.549    481.30061   -2.0512176  0.026622788 0.0091345131   -2.0514107    160.43785    160.37964    3.9530541 
   99200       396800    9855.3779   -38113.734    275.49996 -0.018864916   -28258.356    323.82324   -2.9388796  0.038602892  0.011008414   -2.9391537    160.35785    160.27427    3.8195578 
   99400       397600     9701.861   -38266.674    271.20851  -0.09568109   -28564.813    629.66389   -3.7311355  0.048302996  0.011996112   -3.7314675    160.27785    160.17164    3.5355189 
   99600       398400    9828.4942   -38216.398    274.74845  0.020965589   -28387.904    451.64782   -3.4674152  0.044253965  0.011393888   -3.4677163    160.19785    160.09917    3.3186892 
   99800       399200    9884.1182   -38364.636    276.30338   0.05951397   -28480.517    543.88146   -7.1917495  0.093680075   0.02168997   -7.1923923    160.11785    159.91275     2.929036 
  100000       400000    9757.2665   -38255.812    272.75733  0.012424277   -28498.545     562.6124   -2.5416748  0.031458659  0.010463152    -2.541891    160.03785    159.96562     2.498745 
  100200       400800    9808.0018   -38283.017     274.1756  0.089621158   -28475.016    538.16757   -1.2774497  0.015757043 0.0047455984   -1.2775557    159.95785    159.92175    2.4823154 
  100400       401600    9817.0432   -38268.896    274.42835 -0.043007865   -28451.853     515.1761   -1.5561743  0.018525358 0.0054723791   -1.5562942    159.87785    159.83378    2.2968906 
  100600       402400    9874.5514   -38259.927    276.03594  0.020739083   -28385.376    449.52121    1.9767808  -0.02314857 -0.0085738741     1.976935    159.79785    159.85473     2.289357 
  100800       403200    9890.9262   -38239.477    276.49369  -0.06756763   -28348.551    412.49406  -0.98747378  0.011513815 0.0041821976  -0.98754976    159.71785    159.69003    2.4348425 
  101000       404000    9943.1289   -38172.916    277.95298  0.060869673   -28229.788    293.57369   -2.4375318  0.027903861  0.011598943   -2.4377191    159.63785     159.5686    2.3040442 
  101200       404800    9854.3816   -38261.202    275.47211  0.012144731    -28406.82    469.17509  -0.32380478 0.0039429483 0.0016927695  -0.32383321    159.55785      159.549    2.2820848 
  101400       405600    9805.2406   -38239.073    274.09841   0.01063975   -28433.833    496.35205    1.4595185 -0.017177434 -0.0064979963    1.4596341    159.47785    159.51995    2.2788864 
  101600       406400    9872.5279   -38085.779    275.97938  0.085028437   -28213.251    276.08557    2.0819028 -0.024610251 -0.0084989383    2.0820656    159.39785    159.45774     2.290718 
  101800       407200    9742.1134   -38439.274    272.33374 -0.082868628   -28697.161    761.72035    1.5985483 -0.018678562 -0.0066570834    1.5986713    159.31785    159.36393    2.4114994 
  102000       408000    9773.2919   -38254.905    273.20531 -0.016379624   -28481.613    545.57154    -0.328277 0.0039593951 0.0011260736   -0.3283028    159.23785    159.22887    2.3692551 
  102200       408800    9757.5585    -38429.74    272.76549  0.031827926   -28672.181    732.54686    0.4154583 -0.0051340621 -0.0015581373   0.41549294    159.15785    159.17012    2.4326612 
  102400       409600    9757.5246   -38278.587    272.76454  0.085102902   -28521.062    582.14645    1.7425302 -0.019898569 -0.0073087006    1.7426592    159.07785    159.12804     2.505922 
  102600       410400    9834.1235   -38273.233    274.90581 -0.0086129526    -28439.11    501.34873    -1.779483  0.020828956 0.0061908084   -1.7796157    158.99785     158.9474    2.5535145 
  102800       411200      9696.74   -38284.651    271.06535 -0.078575361   -28587.911    652.12959   0.63453887  -0.00755028 -0.0025842908   0.63458905    158.91785    158.93638    2.5116619 
  103000       412000    9947.0072    -38294.53    278.06139 -0.020075395   -28347.523    412.99288    5.5270234 -0.069020823 -0.023833695    5.5275058    158.83785    158.99618    2.6829534 
  103200       412800    9774.1004   -38187.997    273.22791  -0.02038765   -28413.896    479.16241    5.9206282 -0.074439899 -0.025074112    5.9211493    158.75785    158.92743    3.1306735 
  103400       413600    9935.7394   -38374.078    277.74641  0.080236781   -28438.338    502.05206     3.393967 -0.041237537 -0.012431708    3.3942403    158.67785    158.77523     3.594587 
  103600       414400    9902.9769   -38309.875    276.83056   0.11856221   -28406.898    469.31267    6.0539966 -0.077614256 -0.021515608    6.0545323    158.59785    158.77124    4.0027518 
  103800       415200    9757.5429   -38157.568    272.76505   0.06349748   -28400.025    463.33746    6.2975577 -0.082867984 -0.025497087    6.2981545    158.51785     158.6982    4.5239857 
  104000       416000    9757.1539   -38396.911    272.75418 -0.029155676   -28639.757    704.22109    3.7068225 -0.051228465 -0.010980967    3.7071927    158.43785    158.54417    4.8955408 
  104200       416800     9947.912   -38211.979    278.08669 -0.039420252   -28264.067    329.86785     1.704699 -0.023686656 -0.005716116    1.7048731    158.35785    158.40696    5.0416071 
  104400       417600    9911.5432   -38343.484    277.07002    -0.019733    -28431.94    497.24435   -1.7345561  0.024259509 0.0078726898   -1.7347436    158.27785    158.22869    5.0675051 
  104600       418400    9845.9729   -38283.554    275.23705  0.050763213   -28437.581    501.27531    -4.922872  0.067343901  0.021701469   -4.9233805    158.19785    158.05758    4.8946562 
  104800       419200    9934.1732   -38376.226    277.70263  0.019369021   -28442.053    506.23752   -4.5411029  0.058875789  0.020440996   -4.5415306    158.11785    157.98849    4.5236333 
  105000       420000    9770.8683   -38354.115    273.13756   0.04471717   -28583.246    646.72811      -6.4556  0.083490608  0.034554752   -6.4562324    158.03785    157.85379     4.023742 
  105200       420800    9819.6259   -38290.589    274.50054   0.12523802   -28470.963    534.21573    -1.033399  0.013413112 0.0058294929   -1.0335025    157.95785    157.92872    3.7488821 
  105400       421600    9868.7857   -38408.372    275.87477 -0.017156166   -28539.587    603.52289    1.3905703 -0.018458333 -0.006901023      1.39071    157.87785    157.91798    3.7691331 
  105600       422400    9794.7927   -38339.915    273.80635  0.017206132   -28545.123    608.72937    3.3705364 -0.042996251 -0.013292732    3.3708368    157.79785    157.89456    3.9227413 
  105800       423200    9882.7739   -38304.654     276.2658   0.11985222    -28421.88    483.72589     8.176087  -0.10070635 -0.029620372    8.1767609    157.71785    157.95187    4.3565981 
  106000       424000    9826.7715   -38257.479    274.70029   0.22129787   -28430.708    495.07224    3.9155581 -0.046102316 -0.014997861    3.9158582    157.63785    157.75013    4.8465697 
  106200       424800    9955.5333   -38198.631    278.29973   0.11318859   -28243.097    311.17529     3.963672 -0.048639991 -0.011759064    3.9639878    157.55785    157.67151    5.2137653 
  106400       425600    9810.0661   -38205.533     274.2333 -0.080333085   -28395.467     465.5708    6.5117782 -0.075782981 -0.023193594    6.5122604    157.47785    157.66431    5.7027206 
  106600       426400    9694.6734   -38312.991    271.00758 -0.014939304   -28618.317    686.92975    4.3092238 -0.054966909 -0.015182641    4.3096011    157.39785    157.52138    6.1925262 
  106800       427200    9829.0949    -38207.38    274.76524     0.046028   -28378.285    445.16855    2.4177704 -0.030512846 -0.0067053754    2.4179723    157.31785    157.38733    6.3136104 
  107000       428000    9802.7992   -38318.322    274.03016   0.11560941   -28515.523    581.16523   -2.7488997  0.035008306 0.0069167916   -2.7491313    157.23785     157.1597    6.2918374 
  107200       428800    9748.3575   -38105.362    272.50828  0.012670062   -28357.004     425.3725   -3.9125376   0.05144109  0.012094048   -3.9128944    157.15785    157.04645    6.0979565 
  107400       429600    9744.4168   -38102.802    272.39812 -0.065815695   -28358.385    427.23937   -6.5000601  0.085592889  0.017745078   -6.5006478    157.07785    156.89252    5.5517879 
  107600       430400     9752.385   -38148.211    272.62087 -0.018803919   -28395.826    462.79888     -6.49218  0.086868761  0.015462168   -6.4927795    156.99785    156.81274    5.1642186 
  107800       431200    9821.6237   -38200.345    274.55639  0.060769007   -28378.721    440.68047   -8.1914932   0.11126306  0.024631729   -8.1922858    156.91785    156.68418    4.4788066 
  108000       432000    9840.2095   -38251.732    275.07594  0.040335005   -28411.522     472.8287   -6.2626451  0.085609867  0.021756408    -6.263268    156.83785     156.6593    3.8442378 
  108200       432800     9856.582   -38388.732    275.53362  0.098021998    -28532.15    594.22133   -4.7065869  0.059520127  0.015013924   -4.7069872    156.75785    156.62376    3.4792228 
  108400       433600    9863.7605   -38289.231    275.73429 0.0046345968    -28425.47    489.76283   -6.6521036  0.089472715  0.021071614   -6.6527386    156.67785    156.48817    2.9872767 
  108600       434400    9884.6925   -38191.704    276.31943  -0.17394887   -28307.011    373.10161   -2.8297136  0.037754105 0.0098396685   -2.8299825    156.59785    156.51739    2.6706092 
  108800       435200    9949.6148   -38293.831    278.13429 -0.049877058   -28344.216    408.63872   0.71064092 -0.0094816303 -0.0025152739   0.71070862    156.51785    156.53856     2.643998 
  109000       436000    9743.5241   -38273.001    272.37317 -0.021821682   -28529.477    590.46788   0.36074925 -0.0049987843 -0.0012493835   0.36078605    156.43785    156.44856    2.6872062 
  109200       436800    9874.9148   -38374.216     276.0461 -0.038605538   -28499.301    559.97775   -5.3738939  0.072916812  0.018723469   -5.3744212    156.35785    156.20469    2.4669941 
  109400       437600    9785.6659   -38385.765    273.55121  -0.10855673   -28600.099    661.99125   -5.2550055  0.075564678  0.021244341   -5.2555917    156.27785    156.12809    2.0298761 
  109600       438400    9812.1023    -38384.65    274.29022 -0.067875355   -28572.548    635.33802   -6.7446501   0.10055728  0.024305475   -6.7454435    156.19785    156.00552    1.5788326 
  109800       439200    9867.0647   -38443.598    275.82666 -0.030526052   -28576.534    638.04023   -2.2044771  0.032139906 0.0081650707   -2.2047265    156.11785    156.05526    1.2096858 
  110000       440000    9815.0003   -38313.541    274.37124 -0.053028633   -28498.541    560.06931  -0.58762498  0.008887285 0.0017209012   -0.5876947    156.03785    156.02146     1.145069 
  110200       440800    9879.0722    -38291.62    276.16232 -0.0066758467   -28412.548    473.47363   -2.9632022  0.045450414 0.0076208589   -2.9635606    155.95785    155.87358    1.0223766 
  110400       441600    9917.8715   -38164.712    277.24693 -0.025599288    -28246.84     309.3357  -0.65345846 0.0098458086 0.0018517984  -0.65353525    155.87785    155.85958   0.85783734 
  110600       442400    9908.8263    -38206.28    276.99407  -0.10797016   -28297.454    361.96196   0.17809182 -0.0026414685 -0.00045753969     0.178112    155.79785    155.80334    0.9390143 
  110800       443200     9803.585   -38243.899    274.05213  0.044433986   -28440.314    502.65316   0.13369933 -0.0021074121 -0.00028157339   0.13371624    155.71785    155.72207   0.94880178 
  111000       444000    9713.8125   -38462.276    271.54261  0.088748432   -28748.464    807.56784    2.5287853 -0.037926339 -0.0081411378    2.5290828    155.63785    155.71051    1.0852567 
  111200       444800    9845.2887   -38326.433    275.21793  0.029829248   -28481.145    540.31076     3.206825  -0.04516003 -0.011006637    3.2071618    155.55785    155.64988    1.3658473 
  111400       445600    9906.5682   -38296.022    276.93095 -0.0037365872   -28389.454    451.64964    5.1383298 -0.074860927 -0.014857025    5.1388966    155.47785    155.62508    1.4665072 
  111600       446400    9837.3116    -38258.23    274.99493 -0.044885867   -28420.919    486.52092    5.4301033 -0.079206545 -0.017308443    5.4307086    155.39785    155.55341    1.9153784 
  111800       447200    9824.5913   -38219.753    274.63935  -0.04996177   -28395.162    459.65095    5.8938904  -0.08308486 -0.018621475    5.8945054    155.31785    155.48666    2.4617848 
  112000       448000    9925.7043   -38343.762    277.46589   0.10254203   -28418.058    479.80011    3.4187901  -0.04831995 -0.011469347    3.4191507    155.23785    155.33594    2.8780796 
  112200       448800    9761.2672   -38337.264    272.86917  0.074213029   -28575.997       637.82    2.0570007 -0.028440005 -0.0060041393     2.057206    155.15785    155.21703    3.1767081 
  112400       449600    9907.3708   -38215.939    276.95339  0.040895828   -28308.568    371.79003    3.1191023 -0.039811495  -0.01140104    3.1193772    155.07785    155.16737    3.3708879 
  112600       450400     9741.662   -38262.846    272.32112  -0.12115758   -28521.184    585.26729    4.7410721 -0.065239339 -0.023268925     4.741578    154.99785    155.13372    3.7251973 
  112800       451200    9945.3031   -38061.046    278.01376  0.040957285   -28115.743    181.21361    5.9246594 -0.085548643 -0.025574695    5.9253322    154.91785    155.08754    4.1621458 
  113000       452000    9863.2117   -38336.828    275.71895  0.034396525   -28473.616    538.82081    2.8833547 -0.040009552 -0.012276316    2.8836584    154.83785    154.92064    4.5290893 
  113200       452800    9864.4647   -38383.632    275.75398  0.068350539   -28519.167    585.09623   0.68079491 -0.010015159 -0.0029457586   0.68087495    154.75785     154.7777    4.7100559 
  113400       453600    9830.4153   -38241.268    274.80215  0.045275867   -28410.852    477.46267    2.7667365 -0.042056852  -0.01010576    2.7670746    154.67785    154.75731    4.8808729 
  113600       454400    9754.8085   -38326.753    272.68862  0.064465627   -28571.944    636.89016    4.2442127 -0.064201562 -0.014925248    4.2447245    154.59785    154.71953    5.0051053 
  113800       455200    9798.4441   -38355.148    273.90842  0.067424025   -28556.704    620.77915    5.1218728 -0.076800529 -0.019396841    5.1224853    154.51785    154.66461     5.444401 
  114000       456000    9826.9033   -38417.875    274.70398   -0.1639938   -28590.972    655.30528  -0.89601359  0.013123894 0.0029688797  -0.89611462    154.43785    154.41265    5.4674601 
  114200       456800    9785.9504   -38221.002    273.55917  -0.03390865   -28435.051    500.98515   0.13262805 -0.0019193361 -0.00048744321   0.13264284    154.35785    154.36204    5.3935762 
  114400       457600    10010.734   -38156.194    279.84282 -0.024486448    -28145.46    212.57978   0.60592142 -0.0087931542 -0.0019127824   0.60598823    154.27785    154.29556    5.5444563 
  114600       458400    9855.2132   -38356.119    275.49536  0.074748394   -28500.905    568.99664   -1.4095552  0.020953447 0.0040082696   -1.4097166    154.19785    154.15797    5.4860419 
  114800       459200    9899.8544    -38277.44    276.74327 -0.098383813   -28377.586    446.04642  -0.78229536  0.011417655 0.0025082348   -0.7823827    154.11785     154.0959    5.3913103 
  115000       460000    9769.9182   -38279.784      273.111 -0.032800418   -28509.866    577.54847  -0.73029279   0.01047485 0.0017916466  -0.73037011    154.03785    154.01738    5.2887268 
  115200       460800    9899.9902    -38383.67    276.74707  0.094386109   -28483.679     550.5198 -0.080473121 0.0012038796 0.00013858652 -0.080482245    153.95785    153.95595    5.1853024 
  115400       461600    9726.3582   -38354.386    271.89331 -0.025952548   -28628.027    691.47018  -0.96849934   0.01505169 0.0021103023  -0.96861859    153.87785    153.85057     5.135664 
  115600       462400    9753.8291   -38234.861    272.66124   0.10541424   -28481.032     544.0378   -2.9573893  0.045228811 0.0062611313   -2.9577418    153.79785    153.71374    4.9623429 
  115800       463200    9806.5084    -38325.74    274.13385 -0.018125186   -28519.232    583.87503   -2.1377398  0.031582001 0.0050518225   -2.1379791    153.71785    153.65716    4.7733272 
  116000       464000    9858.3714    -38395.46    275.58364  -0.12476801   -28537.088    604.38512    -4.722133   0.06824174 0.0089804275   -4.7226346    153.63785    153.50332    4.5705653 
  116200       464800    9888.1394   -38298.969    276.41579  0.065483296    -28410.83    478.68305   -1.5672616  0.022444607 0.0044437177   -1.5674286    153.55785    153.51347    4.3527391 
  116400       465600    9882.8575   -38240.592    276.26814 -0.010321613   -28357.735    424.14384    -4.794726  0.067821695  0.017479363   -4.7952375    153.47785    153.34124      4.03916 
  116600       466400    9941.9177   -38369.733    277.91912  0.053357721   -28427.815    490.39635   -1.8939869  0.028150398 0.0071819081   -1.8942097    153.39785    153.34413     3.638863 
  116800       467200    9778.4869   -38265.418    273.35053  0.014771898   -28486.931    549.78385    -5.775638  0.086036767  0.024359137   -5.7763301    153.31785    153.15321    3.4634064 
  117000       468000    9739.2404   -38322.022    272.25342 -0.065115801   -28582.782    646.19834   -6.7119696  0.097456227  0.020467087   -6.7127083    153.23785    153.04646    2.9804393 
  117200       468800    9746.4828   -38307.472    272.45588  -0.12974035   -28560.989    625.80002   -4.7559937  0.074700533  0.015235114   -4.7566047    153.15785    153.02235    2.5043613 
  117400       469600    9957.7928   -38146.855     278.3629  -0.10064463   -28189.062    255.80715   -1.0619293  0.016355842 0.0037868171    -1.062062    153.07785     153.0479    2.2385821 
  117600       470400     9847.723   -38191.367    275.28598 -0.053622188   -28343.644    410.38247   -1.2932551  0.020221102 0.0048831616   -1.2934224    152.99785    152.96129    2.1235739 
  117800       471200    9796.7587   -38145.222     273.8613 -0.0076746059   -28348.463    412.21305   -6.7146338   0.10736467  0.022537061   -6.7155299    152.91785    152.72638    1.7845453 
  118000       472000    9796.2106   -38269.735    273.84598  0.091213986   -28473.524    536.21366  -0.12075982 0.0019721932 0.00032311197  -0.12077636    152.83785     152.8348    1.5613992 
  118200       472800    9962.9036   -38093.396    278.50577   0.08319876   -28130.493    191.29491   -2.4491315  0.039050906 0.0084585785   -2.4494574    152.75785    152.68826    1.5027087 
  118400       473600    9890.9807    -38154.75    276.49521 -0.0049741424   -28263.769    327.07629  -0.22319977 0.0037624219 0.0007974644   -0.2232329    152.67785    152.67187    1.4231376 
  118600       474400    9741.3564   -38174.533    272.31257 -0.077221472   -28433.176    498.54323    2.2557351 -0.038412552 -0.0070841622    2.2560732    152.59785    152.66271     1.525509 
  118800       475200    9842.1106   -38164.549    275.12908  -0.10715204   -28322.438    387.62438    5.3396861 -0.090294652 -0.016090927    5.3404737    152.51785    152.67083    1.8638071 
  119000       476000    9849.9508   -38288.004    275.34825  0.086448371   -28438.053    500.43454    8.2983522  -0.14608567 -0.017457633    8.2996564    152.43785    152.67538    2.4551634 
  119200       476800    9890.8876   -38230.124    276.49261  0.086202114   -28339.236    402.44169    3.3144022 -0.058807471 -0.0086259468    3.3149351    152.35785    152.45296    2.8167743 
  119400       477600    9908.5876   -38247.846     276.9874 -0.091788007   -28339.259    404.06046  -0.88176009  0.015082169 0.0021918171  -0.88189179    152.27785    152.25305     2.917673 
  119600       478400    9825.2489   -38425.267    274.65773     -0.11034   -28600.018    667.15187   -3.5779172  0.062965444 0.0079957975   -3.5784801    152.19785    152.09601    2.8688701 
  119800       479200    9752.5842   -38235.363    272.62644 0.0080325254   -28482.779    549.26736   -3.1608832  0.054536771 0.0061849382   -3.1613597    152.11785    152.02792    2.6330487 
  120000       480000     9864.853   -38281.361    275.76483 -0.031937091   -28416.508    481.31043  -0.33755777 0.0056806168 0.00052286253  -0.33760597    152.03785     152.0286    2.5167729 
  120200       480800    9802.2028    -38383.68    274.01349  0.069496769   -28581.478     645.0579   -1.1017463   0.01870752  0.002025169    -1.101907    151.95785    151.92677    2.3180094 
  120400       481600    9785.3581   -38236.322    273.54261 -0.078767736   -28450.964    513.66651   -5.0581571  0.084713424   0.01179504   -5.0588802    151.87785    151.73371    2.0753492 
  120600       482400    9837.5273   -38151.829    275.00096 -0.0088004104   -28314.301    378.92928   -3.5282694  0.062186236 0.0068739937   -3.5288241    151.79785    151.69743    1.7755958 
  120800       483200    9822.1049     -38199.4    274.56984 -0.020320172   -28377.295    441.64117   -2.0243641  0.035734298 0.0064140885   -2.0246896    151.71785     151.6604    1.6532797 
  121000       484000    10034.535   -38221.838    280.50817  0.055276341   -28187.303    250.59168    3.7902462 -0.064947604 -0.012191215    3.7908222    151.63785    151.74656    1.8395613 
  121200       484800    9867.6322    -38262.37    275.84252 -0.042266304   -28394.738    457.51809    3.6917661 -0.062714096 -0.012453908    3.6923198    151.55785    151.66374    2.1468975 
  121400       485600    9810.9255   -38354.028    274.25733 -0.092728082   -28543.102    606.14299    3.2680287 -0.052694355 -0.010444249    3.2684702    151.47785    151.57163    2.3803853 
  121600       486400    9857.8741   -38224.613    275.56974 -0.010286503   -28366.739    429.47921     6.891664  -0.11070812 -0.017837298    6.8925763    151.39785    151.59518    2.6767591 
  121800       487200    9906.8821   -38298.247    276.93973   0.02860249   -28391.365    454.97805    4.1287428 -0.065574697 -0.0073930655    4.1292702    151.31785    151.43623     3.170827 
  122000       488000     9913.258   -38192.276    277.11796  0.037766016   -28279.018    341.52103   0.72966374 -0.011345563 -0.0016682764   0.72975384    151.23785     151.2591     3.358609 
  122200       488800     9826.399   -38087.419    274.68988  -0.10162995    -28261.02     327.3684   0.30513735 -0.0047219241 -0.00050388211    0.3051743    151.15785    151.16697    3.3446463 
  122400       489600    9844.6088   -38024.549    275.19892  -0.15473404    -28179.94    247.43583  -0.36194796  0.005789321 0.0003515473  -0.36199443    151.07785    151.06791    3.2994198 
  122600       490400    9827.7862   -38091.931    274.72866 -0.093952476   -28264.144    329.81678   0.49034576 -0.0079816157 -0.00045290545   0.49041093    150.99785    151.01226    3.3679966 
  122800       491200    9849.8171   -38301.174    275.34451   0.11509753   -28451.357    514.57643    1.9216171 -0.031031353 -0.0039443654    1.9218717    150.91785    150.97316    3.4546406 
  123000       492000    9891.6477   -38166.685    276.51386   0.13636421   -28275.038    337.71918   -0.5418168 0.0092550682 0.0017335157  -0.54189861    150.83785    150.82277    3.4193893 
  123200       492800    9728.6162   -38197.903    271.95643  0.019256186   -28469.287    534.03048    4.0584368 -0.067049607 -0.013074214    4.0590117    150.75785    150.87422    3.5673593 
  123400       493600    9813.4387   -38265.492    274.32758 -0.096858768   -28452.053    519.59076    3.1319532 -0.050072544 -0.013774489    3.1323837    150.67785    150.76775    3.9272773 
  123600       494400    9731.2766   -38227.945     272.0308 -0.035676824   -28496.669    562.98449    3.3680704 -0.058716429 -0.0098644957    3.3685967    150.59785     150.6945    4.2374274 
  123800       495200    9917.1892   -38349.091    277.22785 -0.064270342   -28431.902    496.86786    4.2894705 -0.070814279 -0.012963508    4.2900746    150.51785    150.64082    4.5143777 
  124000       496000    9684.7395   -38281.503    270.72989  -0.01069986   -28596.764    660.51007   0.63077332  -0.01081865 -0.0016667869   0.63086829    150.43785    150.45627    4.7031096 
  124200       496800    9845.9958   -38352.165    275.23769  -0.02307927   -28506.169      570.001  -0.70695499  0.012719785 0.0010558052   -0.7070702    150.35785    150.33805    4.6671374 
  124400       497600     9821.672   -38362.298    274.55774  0.016894347   -28540.626    605.74363    1.0670009 -0.019184322 -0.0027625223    1.0671769    150.27785    150.30874    4.7457477 
  124600       498400    9860.8376   -38138.398    275.65259  0.038549693    -28277.56    343.37717   -2.6394031  0.046316726 0.0051630298   -2.6398145    150.19785    150.12283    4.7596001 
  124800       499200    9867.6503   -38253.018    275.84303 -0.048367292   -28385.368     449.9709   -1.9460601  0.032894316 0.0039715665   -1.9463421    150.11785    150.06264    4.5465592 
  125000       500000    9837.5881   -38313.386    275.00266  0.024595911   -28475.798    539.85858   -1.0163671  0.016855255 0.0020555341    -1.016509    150.03785    150.00921    4.3908753 
  125200       500800    9926.2172   -38225.617    277.48022 0.0081937744   -28299.399    363.93924   -1.4793237  0.023685174 0.0039112655   -1.4795185    149.95785    149.91598    4.1737904 
  125400       501600    9891.0058   -38194.055    276.49591 -0.077588594   -28303.049     366.5934   -5.8274219  0.096672281  0.015233211   -5.8282436    149.87785    149.71173     3.882261 
  125600       502400    9722.4588   -38353.541    271.78431  0.052304086   -28631.082    696.15898   -3.7670982  0.059893629  0.013926949   -3.7676001    149.79785     149.6906    3.4087063 
  125800       503200    9757.7041   -38285.463    272.76956  -0.10779831   -28527.759    592.35129   -3.0362902  0.047933246 0.0094172546   -3.0366831    149.71785    149.63149      3.16698 
  126000       504000    9781.5985   -38308.898    273.43751  0.014595542     -28527.3    589.58266   0.40855772 -0.0071034513 -0.0012507361   0.40862139    149.63785    149.64992    3.0748487 
  126200       504800    9733.0424    -38508.98    272.08016   0.10764376   -28775.938    836.02144    4.1370891 -0.071103202 -0.010544588    4.1377135    149.55785    149.67647    3.1739217 
  126400       505600    9888.5328   -38344.843    276.42678   0.16181859    -28456.31     516.4837    4.8757084 -0.084656086 -0.011292237    4.8764564    149.47785    149.61758    3.5674119 
  126600       506400    9793.8597   -38244.099    273.78027 -0.066931956   -28450.239    513.87575    6.1942585  -0.10882642 -0.015970752     6.195235    149.39785    149.57526    4.0559977 
  126800       507200    9823.4236   -38199.367     274.6067  0.024552713   -28375.943    442.07504    3.7057215  -0.06536613 -0.010246354    3.7063121    149.31785    149.42414    4.4323973 
  127000       508000    9782.1112   -38260.004    273.45185 -0.0095491484   -28477.893    542.15876    1.3612135 -0.024271842 -0.0023191234    1.3614319    149.23785    149.27715    4.6581654 
  127200       508800    9885.9341   -38421.767    276.35414  0.048303551   -28535.833    596.55086  -0.58929267   0.01048027  0.001521175  -0.58938782    149.15785    149.14141    4.6864986 
  127400       509600    9751.8433   -38376.386    272.60573  0.026190088   -28624.543    686.96604   -1.2199327  0.021490481 0.0034659593   -1.2201269    149.07785    149.04339    4.5051517 
  127600       510400    9847.2794   -38464.305    275.27357  0.027027198   -28617.025    680.92525   -1.3318751   0.02274564 0.0036589546   -1.3320743    148.99785    148.96019    4.4146809 
  127800       511200    9849.2461   -38344.294    275.32855 -0.089852005   -28495.048    559.77612   -3.4455178  0.057406355 0.0097088391   -3.4460097    148.91785    148.81979    4.2524564 
  128000       512000     9873.879   -38259.746    276.01715 -0.0019072302   -28385.867     449.6688   -1.9866678  0.032098231 0.0044330067   -1.9869321    148.83785    148.78148    3.9386827 
  128200       512800    9803.0493   -38295.286    274.03716  0.032910321   -28492.236    555.46624   -1.6653156  0.029556332 0.0036451479   -1.6655819    148.75785    148.71066    3.8474939 
  128400       513600    9889.9697   -38162.783    276.46695   0.03845018   -28272.813    337.15066    -1.653546  0.030513864 0.0034820022   -1.6538311    148.67785      148.631    3.5763772 
  128600       514400    9826.9216   -38189.327    274.70449 -0.024856748   -28362.405    424.98978    1.4794704 -0.027191792 -0.0037144052    1.4797249    148.59785    148.64053    3.6135761 
  128800       515200     9871.386   -38203.808    275.94746  0.023250489   -28332.422    396.41539  0.073404544 -0.0013507164 -0.00019654034  0.073417233    148.51785    148.52035    3.6909774 
  129000       516000    9852.0405   -38216.694    275.40667 -0.038113845   -28364.654    429.03858   -2.6114552   0.04698121 0.0060338224   -2.6118847    148.43785    148.36362    3.5866777 
  129200       516800    9854.9617   -38342.425    275.48833  -0.13906257   -28487.464    552.27747     3.448092  -0.06295214 -0.0070992598     3.448674    148.35785    148.45678    3.7055939 
  129400       517600    9804.7821   -38242.503    274.08559   0.02172172   -28437.721    502.27562    2.5697986 -0.047673619 -0.0062047841    2.5702483    148.27785    148.35169     4.036228 
  129600       518400    9863.3718   -38313.937    275.72343  0.018140489   -28450.566    513.55336     1.891267 -0.033801888 -0.0047084012    1.8915749    148.19785    148.25229      4.20618 
  129800       519200    9871.9338   -38152.981    275.96277  0.091061542   -28281.047    345.79999    3.7508312 -0.063482745 -0.013310717     3.751392    148.11785    148.22543    4.4047663 
  130000       520000    9878.6698   -38333.849    276.15107 -0.051704697   -28455.179    520.20373    2.2526116 -0.038914744 -0.0079405425    2.2529617    148.03785    148.10262    4.6185498 
  130200       520800    9821.5178   -38298.607    274.55343  0.002269952   -28477.089    543.37502   -2.8320431  0.046902619 0.0085833967   -2.8324445    147.95785    147.87732    4.5772832 
  130400       521600    9796.7065   -38261.142    273.85984 -0.068227735   -28464.436    530.53379   -4.8457939  0.078125605  0.013742247   -4.8464431    147.87785    147.73978     4.308672 
  130600       522400    9747.8971   -38126.675    272.49541 -0.071401216   -28378.778    443.17858   -2.2657212  0.036808086 0.0059524555    -2.266028    147.79785    147.73351    4.0263324 
  130800       523200    9808.8753    -38118.76    274.20002  0.035183606   -28309.885    374.06161   0.13141618 -0.0022233373 -0.00040760468   0.13143562    147.71785      147.722    3.9251236 
  131000       524000    9750.1221   -38233.022    272.55761 -0.011117833     -28482.9    548.05718  -0.73021948  0.012469127 0.0019194068  -0.73032846    147.63785    147.61738    3.8497841 
  131200       524800    9731.9432   -38318.553    272.04943  -0.13040158    -28586.61    651.12664   -1.2835477  0.022798583 0.0014566186    -1.283751    147.55785    147.52157    3.8413321 
  131400       525600    9923.9922    -38309.33    277.41803 -0.042064353   -28385.338    449.52968   -6.9959911   0.12662935 0.0085533384   -6.9971422    147.47785    147.27833    3.5032711 
  131600       526400    9969.1696   -38285.842    278.68093  -0.11216616   -28316.672    379.97552    1.0550524 -0.019174305 -0.0010579131    1.0552272    147.39785     147.4284    3.2483521 
  131800       527200    9769.8954   -38204.044    273.11036 -0.013358548   -28434.148    496.72944   0.88207437 -0.016229542 -0.00043492482   0.88222377    147.31785    147.34346    3.3669609 
  132000       528000    9838.5104    -38273.49    275.02844   0.05455876    -28434.98    498.14962   -2.5447012  0.046970275 0.0038712973   -2.5451376    147.23785    147.16553    3.2011857 
  132200       528800    9803.9767   -38310.639    274.06308 -0.060221246   -28506.662    571.58132   0.68848337 -0.012524917 -0.00073831154   0.68859769    147.15785    147.17792    3.1848308 
  132400       529600    9904.1557   -38364.467    276.86351 -0.045191163   -28460.311    524.89196  -0.65707811  0.011978253 0.00087863852  -0.65718787    147.07785    147.05947    3.2015373 
  132600       530400    9914.5782   -38326.012    277.15487  0.025806857   -28411.433     474.8996   0.84552024 -0.015451194 -0.00093207418   0.84566192    146.99785    147.02241    3.3232037 
  132800       531200    9784.2288   -38251.373    273.51104   0.11405803   -28467.144    531.58281    2.9473428 -0.054427082 -0.0076348247    2.9478552    146.91785    147.00247    3.5479217 
  133000       532000    9893.9871   -38295.471    276.57925   0.03349535   -28401.483    466.67965   -0.6549591  0.012500838 0.0024911936  -0.65508313    146.83785    146.81953    3.5183318 
  133200       532800    9852.6995   -38304.902    275.42509 0.0041500817   -28452.203    519.44269   -2.0420183  0.038605684 0.0056242381   -2.0423909    146.75785     146.6999    3.3452656 
  133400       533600     9809.289   -38272.585    274.21158 -0.040906801   -28463.296    531.02126   -1.3976676  0.027139259 0.0048277982   -1.3979394    146.67785    146.63831    3.2525687 
  133600       534400    9882.0147   -38186.744    276.24457  0.019431796   -28304.729    369.67434   -3.4110454  0.065582896  0.014973739   -3.4117087    146.59785    146.50077    3.2322374 
  133800       535200    9732.8417   -38238.967    272.07455   0.10935822   -28506.125    567.96115   -2.6391372  0.050931049 0.0085745976   -2.6396425    146.51785    146.44283    3.0347424 
  134000       536000    9834.7499   -38248.137    274.92332   0.10427216   -28413.387    475.37008   -2.5996797  0.050628324 0.0079948788   -2.6001849    146.43785    146.36396    2.7305883 
  134200       536800      9989.83   -38179.082    279.25847 -0.012871619   -28189.252    255.27613   -4.2111644  0.081471391  0.016310698    -4.211984    146.35785    146.23791    2.4697786 
  134400       537600    9721.1576   -38190.691    271.74793 -0.073627584   -28469.533    538.24543    1.1412387 -0.021998333 -0.0035764686    1.1414563    146.27785    146.31086    2.3096592 
  134600       538400     9717.421   -38283.633    271.64348  -0.11555671   -28566.212    632.40801   0.70791127 -0.013370755 -0.0016825183   0.70803953    146.19785    146.21848    2.3870773 
  134800       539200    9825.9993   -38289.321     274.6787  0.088161786   -28463.322    525.70983    4.8514334 -0.092679396 -0.0093304925    4.8523275    146.11785    146.25689    2.6442963 
  135000       540000    9952.5928    -38365.42    278.21754  0.080918195   -28412.828    473.12171    5.9636056   -0.1127566 -0.013284248    5.9646863    146.03785    146.20867    3.1478372 
  135200       540800    9869.7853   -38335.242    275.90271  -0.04325563   -28465.456     528.0877   -1.7191897  0.032008217  0.004603148   -1.7194938    145.95785    145.90912    3.3506875 
  135400       541600    9848.7834   -38201.727    275.31562 -0.024876869   -28352.944    418.70979   -2.1233091  0.040117672 0.0066885082   -2.1236986    145.87785    145.81757    3.1766537 
  135600       542400    9857.6369   -38242.448    275.56311  -0.14796685   -28384.811    451.82586    2.4340151 -0.046474424 -0.0067775494    2.4344682    145.79785    145.86781    3.2262883 
  135800       543200    9747.4473   -38150.427    272.48284 0.0055502074    -28402.98    467.62684    1.5956404 -0.030786306 -0.0030943707    1.5959404    145.71785    145.76385    3.3788812 
  136000       544000    9770.9396   -38303.867    273.13955   0.14384763   -28532.927    596.19999    1.8384207 -0.034942952 -0.0045973847    1.8387585    145.63785    145.69079    3.5631041 
  136200       544800    9918.4901   -38308.586    277.26422  0.016828057   -28390.096    453.87493   -1.9294004  0.036413805 0.0049082981   -1.9297502    145.55785    145.50311     3.585172 
  136400       545600    9788.4569    -38189.98    273.62924  -0.06242911   -28401.523    467.56254    2.1784536 -0.041500566 -0.0059105232    2.1788569    145.47785     145.5405    3.5782903 
  136600       546400    9963.5904   -38245.108    278.52496  -0.15558183   -28281.518    348.41894    5.6297566  -0.10929343 -0.014666141    5.6308365    145.39785    145.55913    3.9928508 
  136800       547200    9738.6656   -38308.958    272.23736 -0.051498457   -28570.292    636.56425    1.7020207 -0.033744364 -0.0032232455    1.7023583    145.31785    145.36689    4.2094543 
  137000       548000    9916.0716   -38395.747    277.19661  -0.04282032   -28479.675    543.76576 -0.083860875 0.0016609055 0.00029650624 -0.083877845    145.23785    145.23585    4.1676643 
  137200       548800    9883.3679   -38390.828     276.2824  0.087709212    -28507.46    568.91408    2.0389065 -0.039266763 -0.006064623    2.0392936    145.15785    145.21651    4.2998379 
  137400       549600     9882.764   -38389.225    276.26552  0.076469495   -28506.461    569.63998    2.9648081  -0.05912588 -0.0096983238    2.9654135    145.07785    145.16298    4.5177288 
  137600       550400    10014.983   -38271.699     279.9616  0.039780817   -28256.716    323.53201  0.036286186 -0.0007082251 -7.9478902e-05  0.036293184    144.99785    144.99929    4.6347476 
  137800       551200     9878.939   -38110.967     276.1586   -0.1579348   -28232.028    301.94174  -0.56263581  0.010908091 0.0012674682  -0.56274296    144.91785    144.90217    4.5151973 
  138000       552000    9802.8559   -38121.371    274.03175 -0.072763942   -28318.515    387.29867   -6.8275094   0.14229526  0.010316148   -6.8289999    144.83785    144.64314     4.238741 
  138200       552800    9756.2787    -38306.98    272.72972 -0.034343676   -28550.701    615.46251   -5.8428523   0.12099186 0.0045128082   -5.8441067    144.75785    144.59127     3.756176 
  138400       553600    9868.0003   -38354.976    275.85281  0.016442252   -28486.976    550.42427   -3.1106051  0.063977001 0.0057522754   -3.1112683    144.67785    144.58936    3.5024729 
  138600       554400     9863.089    -38443.65    275.71552   0.03876962   -28580.561    642.78871   -6.7107463   0.13895888  0.010661339   -6.7121933    144.59785    144.40647    2.9884327 
  138800       555200     9839.132   -38514.885    275.04582 -0.046026402   -28675.753    738.51928   -3.8718539  0.078959972 0.0077372131   -3.8726667    144.51785     144.4076    2.5212159 
  139000       556000    9947.4309   -38322.247    278.07324    0.0239544   -28374.816    437.74604   -1.5043117  0.029616603 0.0027221633   -1.5046057    144.43785    144.39526    2.4856428 
  139200       556800    9805.7111   -38211.119    274.11156 -0.0038516808   -28405.408    467.73673  -0.47037239 0.0093794486 0.00097608572   -0.4704669    144.35785    144.34481      2.41818 
  139400       557600    9720.0309   -38316.821    271.71644 -0.067796788    -28596.79    660.74107  -0.15659411 0.0030828484 0.00060916666  -0.15662564    144.27785    144.27377    2.3902478 
  139600       558400    9866.3027   -38257.399    275.80536   0.04513197   -28391.097    455.89727  -0.20330668 0.0040066076 0.00070593859  -0.20334738    144.19785    144.19244    2.2936098 
  139800       559200    9931.6479   -38235.495    277.63204 -0.016014436   -28303.847    368.79244   -4.4630022   0.09181099   0.01884865   -4.4639863    144.11785    143.99071    2.0179429 
  140000       560000     9745.679   -38145.088    272.43341  -0.12380042   -28399.409    464.37781  -0.95412794  0.018581434  0.004325154  -0.95431866    144.03785    144.01098    1.7369622 
  140200       560800    9943.6705    -38183.81    277.96812  0.065378728    -28240.14    303.24436     3.100061 -0.058581974 -0.013041606    3.1006419    143.95785    144.04684    1.9118507 
  140400       561600    9854.2127   -38245.488    275.46739  0.007850203   -28391.275    453.86801   -1.8406783  0.033606185   0.00846705   -1.8410045    143.87785    143.82565     1.928658 
  140600       562400     9805.207   -38248.961    274.09747 -0.0072194941   -28443.754    507.07243   -1.6338528  0.029580224 0.0077359508   -1.6341388    143.79785    143.75156    1.6934392 
  140800       563200    9793.4016    -38408.68    273.76746  0.061943347   -28615.278    679.14121    1.4431308 -0.025668742 -0.0051745824    1.4433683    143.71785    143.75949    1.7769333 
  141000       564000    9893.0177   -38408.664    276.55216 -0.015342735   -28515.646    578.04979    3.0126851 -0.053580821 -0.011078765    3.0131819    143.63785    143.72434    1.9004859 
  141200       564800    9864.7356   -38393.243    275.76155 -0.033223084   -28528.507     591.4292    8.3438614  -0.15586392 -0.034202751    8.3453871    143.55785    143.79669    2.3764173 
  141400       565600    9845.9555   -38206.402    275.23657  0.055974664   -28360.446    427.55464    5.6020559  -0.10520329   -0.0209558    5.6030828    143.47785    143.63834    2.9902729 
  141600       566400    9795.8811   -38356.236    273.83677 -0.037860236   -28560.355    627.52586   0.78812088 -0.015150049 -0.0032867203   0.78827333    143.39785    143.42077    3.2953507 
  141800       567200    9983.4864   -38400.224    279.08114  0.012022241   -28416.738    481.67395  -0.30798723 0.0058283529 0.0013292476  -0.30804524    143.31785    143.30945    3.2684223 
  142000       568000    9832.7078   -38295.431    274.86624 -0.027081428   -28462.723    527.79277     2.081043 -0.040641604 -0.010418729    2.0814658    143.23785    143.29772    3.3592985 
  142200       568800    9907.8765   -38200.758    276.96752  0.065667058   -28292.882      359.647   0.33616386 -0.0065286491 -0.0015188325   0.33623068    143.15785    143.16786    3.4673898 
  142400       569600    9920.5352   -38345.841    277.32139  -0.19869533   -28425.306    494.99624  -0.27132786 0.0054152352 0.00096609511  -0.27138361    143.07785     143.0705     3.386093 
  142600       570400    9902.2206    -38161.87    276.80942  -0.14230307   -28259.649    328.74744  -0.48537716 0.0096021807 0.0013317247  -0.48547395    142.99785    142.98438     3.264032 
  142800       571200    9924.0304   -38241.279    277.41909   0.09931108   -28317.249    383.22956  -0.16287012 0.0031872682 0.00046729117  -0.16290197    142.91785     142.9136    3.2080593 
  143000       572000    9954.2005   -38331.431    278.26248  0.046857359    -28377.23    440.48456   -0.4496338 0.0089455858 0.0015656225  -0.44972551    142.83785     142.8254    3.1635907 
  143200       572800    9741.0446   -38213.535    272.30386 -0.015247604    -28472.49    537.56785     2.281776  -0.04662739 -0.0070632385    2.2822633    142.75785    142.82346    3.2385771 
  143400       573600    9853.4936   -38386.523    275.44729  0.001419213    -28533.03    601.67396   0.46075815 -0.0093587124 -0.0015863977   0.46085591    142.67785    142.69142    3.2819163 
  143600       574400    9669.6323   -38252.553    270.30758   0.05514966   -28582.921    652.13062    1.0922078 -0.022087523 -0.0036321914    1.0924371    142.59785    142.62946    3.3274118 
  143800       575200    9981.4002   -38142.368    279.02282  -0.13598244   -28160.968    228.62523    5.0107197 -0.098891105 -0.016708674    5.0117233    142.51785    142.66144    3.6006322 
  144000       576000    9918.1408   -38201.711    277.25445  0.030925545    -28283.57    349.84864    2.4908649 -0.051576391 -0.0092134743    2.4914158    142.43785    142.50943    3.7906705 
  144200       576800    9819.9966   -38226.545     274.5109  0.081124598   -28406.549    473.68859     6.780146  -0.13916407 -0.024752155    6.7816192    142.35785    142.55201     4.156559 
  144400       577600    9777.6471    -38159.14    273.32705 -0.028927838   -28381.493    450.30587    3.0248992 -0.062591168 -0.010997963    3.0255667    142.27785    142.36469      4.52742 
  144600       578400    9973.9596   -38121.098    278.81483  0.044522905   -28147.139    214.20822    1.7819225 -0.035430814 -0.0059945082    1.7822848    142.19785    142.24917    4.7305909 
  144800       579200    9709.7079   -38174.499    271.42786 -0.0069936227   -28464.791    530.94918    3.8118795 -0.074081541  -0.01406733    3.8126252    142.11785    142.22718     5.036233 
  145000       580000    9830.9197   -38200.106    274.81625   0.01798693   -28369.186    436.94461    2.6420173 -0.052352379 -0.0079717063    2.6425479    142.03785    142.11375     5.196282 
  145200       580800    9936.0428   -38268.733    277.75489 -0.054768165   -28332.691    399.49203  -0.21528774 0.0042739291 0.00060937879  -0.21533102    141.95785     141.9521    5.2496369 
  145400       581600      9703.38   -38204.318    271.25097  -0.15506654   -28500.938    569.53374   0.83789369 -0.016402181 -0.0021134334   0.83805688    141.87785    141.90219    5.3045659 
  145600       582400    9857.8956   -38248.576    275.57034 -0.073749574    -28390.68    459.19176   -1.2988424  0.025355102 0.0027227198   -1.2990927    141.79785    141.76113    5.4161267 
  145800       583200    9841.8052   -38399.933    275.12055  0.088380716   -28558.128    623.98736   -4.0924183  0.080804815 0.0069218469   -4.0932219    141.71785     141.6013     5.157288 
  146000       584000     9808.727   -38218.137    274.19587  0.028421414    -28409.41    475.45087     3.416566 -0.068029148 -0.0043770095     3.417246    141.63785    141.73589    5.0447655 
  146200       584800    9824.1016   -38230.347    274.62566 -0.027888246   -28406.245    474.28412  -0.47624397 0.0097721722 0.00074355085   -0.4763448    141.55785    141.54464    5.2703294 
  146400       585600    9732.2891   -38177.038     272.0591 -0.086880399   -28444.749    512.53498   -1.8321263  0.036453818 0.0019902595     -1.83249    141.47785    141.42589    5.0878081 
  146600       586400    9991.8794   -38241.568    279.31576  0.038898796   -28249.689    316.96632  -0.17694396 0.0036607221 0.00026392456  -0.17698202    141.39785    141.39319    5.0305995 
  146800       587200    9758.2448   -38468.131    272.78468  -0.06604285   -28709.886    776.47511   -1.8446967  0.037602443 0.0012866018   -1.8450804    141.31785    141.26553    4.9540009 
  147000       588000    9877.7006   -38372.435    276.12398   0.11217215   -28494.734    559.14705   -3.2255137  0.064858252 0.0029918541   -3.2261671    141.23785    141.14607     4.649275 
  147200       588800    9848.3998   -38307.504     275.3049 0.00084257215   -28459.104     524.3637   -2.6715069  0.051526898  0.003606848   -2.6720062    141.15785    141.08191     4.484758 
  147400       589600    9889.8437   -38417.382    276.46343  -0.13641012   -28527.538    592.25745   -5.7306085   0.11386744  0.012999922   -5.7317544    141.07785    140.91449    4.1391111 
  147600       590400    9783.7525       -38390    273.49773  0.019420301   -28606.247     671.8713    1.4123094 -0.029070623 -0.002837704    1.4126114    140.99785    141.03861    3.9196229 
  147800       591200    9759.9163   -38344.026     272.8314  0.069185427   -28584.109    648.84437    0.5591004 -0.011560012 -0.0012750938   0.55922135    140.91785    140.93423    4.0180371 
  148000       592000    9852.8036   -38181.159      275.428 0.0098873071   -28328.355    395.16066   -4.8079642  0.097785333   0.01128473   -4.8089717    140.83785    140.70085    3.8429293 
  148200       592800    9983.0239    -38276.43    279.06821 0.0079625918   -28293.406    359.81509   -2.0444984  0.044673792 0.0040104524   -2.0449904    140.75785    140.69982    3.5795355 
  148400       593600    9779.6068   -38382.017    273.38184 -0.021091609   -28602.411    666.88462   -4.7524169   0.10246924  0.010085083   -4.7535322    140.67785    140.54243    3.3239645 
  148600       594400    10000.387   -38311.052    279.55359   0.12772914   -28310.664    373.57497   -8.3809147   0.17752053  0.018667069   -8.3828153    140.59785    140.35874    2.8261949 
  148800       595200    9752.4134   -38220.506    272.62167 -0.044579712   -28468.092    531.98572   -2.9162927  0.059632999 0.0056116427   -2.9169078    140.51785    140.43491    2.3136317 
  149000       596000    9824.6628   -38144.379    274.64135 -0.038280825   -28319.716    385.39899   -3.9656543  0.077895912 0.0087401717   -3.9664289    140.43785    140.32492    2.0432381 
  149200       596800    9786.1692   -38246.049    273.56528 -0.081855342    -28459.88    525.86344   -3.3909577  0.063888287 0.0097407148   -3.3915735    140.35785    140.26135    1.7824907 
  149400       597600    9967.7173   -38329.313    278.64033 -0.0090152887   -28361.596    426.21321   -0.7243289   0.01331559 0.0022620041  -0.72445481    140.27785    140.25755    1.5529545 
  149600       598400    9889.6889   -38405.803     276.4591  0.027103781   -28516.114    578.98699    1.4411221 -0.027263335 -0.0041030524    1.4413858    140.19785    140.23943    1.5827132 
  149800       599200    9950.8249   -38334.474    278.16811 -0.064276116   -28383.649    446.58486  -0.50008539 0.0096180198 0.0010081262  -0.50017889    140.11785    140.10396    1.6300276 
  150000       600000    9760.7658    -38198.72    272.85515 0.0057930407   -28437.955    502.26144   -0.8858686  0.017655381 0.0027211156  -0.88604869    140.03785    140.01293    1.5955029 
  150200       600800    9866.3165   -38278.818    275.80574 -0.068390259   -28412.501    478.00717   0.77962136 -0.015895082 -0.0018363407   0.77978554    139.95785    139.98053      1.53123 
  150400       601600    9925.3516   -38179.116    277.45603  0.012258218   -28253.765    319.92227    4.6438137 -0.094171643 -0.013278802    4.6447874    139.87785    140.01096    1.6851327 
  150600       602400    9882.8022   -38163.753    276.26659 0.0055609146   -28280.951    346.13054    2.7249507 -0.055960408 -0.0080430456    2.7255372    139.79785    139.87612    1.9262252 
  150800       603200    9873.4712   -38413.761    276.00575 -0.00018102694    -28540.29    604.00583    1.1650438 -0.022945527 -0.0040323026    1.1652767    139.71785    139.75154    2.1933011 
  151000       604000    9854.1568   -38283.696    275.46583   0.04351763   -28429.539    492.65336  -0.68334357  0.013236767  0.002663523  -0.68347695    139.63785    139.61872     2.202059 
  151200       604800    9922.2265   -38268.861    277.36867   0.11654964   -28346.635    407.91864    4.3691552 -0.084415145 -0.017168347    4.3700044    139.55785    139.68311    2.2576286 
  151400       605600    9731.3188   -38323.709    272.03198 0.0067496906   -28592.391     656.8014    5.2347643  -0.09935973 -0.020335099    5.2357467    139.47785    139.62784    2.6531815 
  151600       606400     9798.512   -38258.079    273.91032 -0.024350578   -28459.567    526.46777    2.0744912  -0.03997186 -0.0091001376    2.0748962    139.39785    139.45753    2.9680713 
  151800       607200    9884.0684   -38204.347    276.30198 -0.020427355   -28320.279    387.02084    3.3224894 -0.062745315 -0.011469313    3.3231016    139.31785     139.4132    3.3229599 
  152000       608000    9865.6915   -38309.535    275.78827 -0.030794345   -28443.843    509.27429   0.37515016 -0.0072932213 -0.0015722547   0.37522434    139.23785    139.24897    3.3866786 
  152200       608800     9839.304    -38222.58    275.05063 0.0091850612   -28383.276    447.41778    6.7204787  -0.13226914  -0.03063573      6.72185    139.15785     139.3503    3.6253482 
  152400       609600    9874.6043   -38176.703    276.03742   0.05395211   -28302.098    367.81651    4.6307461 -0.092717596 -0.022544237     4.631729    139.07785    139.21058    4.1112267 
  152600       610400    9995.5024   -38161.687    279.41704  -0.11450787   -28166.185    235.87152  -0.62495894  0.012442496 0.0030029633     -0.62509    138.99785    138.98039    4.1906713 
  152800       611200    9865.1359    -38167.88    275.77274 -0.039436294   -28302.744     372.8251  -0.89695405   0.01777856 0.0051668818  -0.89714511    138.91785    138.89262    4.1290958 
  153000       612000    9898.3449   -38212.283    276.70107  0.010917362   -28313.938    381.56764  -0.38923635 0.0077696771 0.0023410959  -0.38932093    138.83785    138.82713    4.0331787 
  153200       612800    9920.5685   -38262.858    277.32232  0.038491106   -28342.289    408.21182    2.7116351  -0.05481715  -0.01404163    2.7122255    138.75785    138.83574    4.0465154 
  153400       613600     9729.702   -38157.293    271.98678 -0.051588721   -28427.591    494.38454  -0.55500473  0.011642907 0.0022706892  -0.55513148    138.67785    138.66239    4.1913134 
  153600       614400    9776.2624   -38098.269    273.28835  0.029156168   -28322.007    391.07339   0.50887621 -0.010659456 -0.0020412791   0.50899193    138.59785    138.61279    4.2610936 
  153800       615200    9862.2794   -38298.728    275.69289  0.026927855   -28436.449    503.94639   -2.8038098  0.057580336   0.01002574   -2.8044189    138.51785    138.43812    4.0873656 
  154000       616000    9843.0269   -38136.291     275.1547   0.15421458   -28293.264    359.57401   -1.2184037  0.024736891 0.0037203403   -1.2186605    138.43785    138.40343    3.9073847 
  154200       616800     9677.659    -38269.95    270.53196 -0.071788109   -28592.291    659.80711   -1.5661973  0.032666798 0.0050707854   -1.5665462    138.35785    138.31349    3.8501636 
  154400       617600    9776.6278   -38159.957    273.29856   0.02215658   -28383.329    451.65467   -3.5356568  0.075553114  0.010124152   -3.5364785    138.27785    138.17721    3.6560118 
  154600       618400    9822.9923   -38125.753    274.59465  0.013398157    -28302.76    370.72944   -1.6976568  0.036544488  0.005343525   -1.6980585    138.19785    138.14973    3.4821215 
  154800       619200    9721.0585   -38142.958    271.74516 -0.039391009   -28421.899    489.63099   -2.7377248  0.056748681 0.0067908539   -2.7383213    138.11785    138.04001    3.2825637 
  155000       620000    9769.7279   -38142.156    273.10568 -0.070213212   -28372.428    439.06593   -1.7485039  0.036620023  0.002172803   -1.7488887    138.03785    137.98828    3.0191494 
  155200       620800    9690.5462   -38110.714    270.89221  -0.02427897   -28420.168     485.7957    2.6334237 -0.054569053 -0.0011009841    2.6339892    137.95785    138.03351    3.1011582 
  155400       621600    9706.4806   -38228.658    271.33765  0.051877091   -28522.177    588.38312            0            0            0            0    137.87785     137.8781    3.0963673 
  155600       622400    9811.2752   -38165.559     274.2671  0.030148107   -28354.284    421.26805  -0.62324214  0.013068722 -0.00026417085   -0.6233792    137.79785    137.78044    3.0731583 
  155800       623200    9837.6707   -38214.067    275.00497  0.065348077   -28376.396    442.55619    2.1398779  -0.04232105 -0.00058340815    2.1402964    137.71785     137.7794    3.1511217 
  156000       624000    9841.7426   -38220.653     275.1188  0.062393595    -28378.91     444.1917    3.5155622 -0.069619179 -0.004153153    3.5162539    137.63785    137.73871    3.3378864 
  156200       624800    9727.1962   -38281.472    271.91674 -0.076290691   -28554.276    619.17277  -0.88301282  0.018197569 0.00089815328  -0.88320077    137.55785    137.53302    3.3650414 
  156400       625600    9701.9866    -38359.82    271.21202 -0.017383882   -28657.833    722.43701    4.6453822 -0.095268562 -0.006544114    4.6463636    137.47785      137.611     3.592593 
  156600       626400    9941.8765   -38185.535    277.91797 -0.010879175   -28243.659    309.65752    5.5485895  -0.11765762 -0.010036417    5.5498459    137.39785    137.55682    3.9926018 
  156800       627200    9877.9387   -38263.353    276.13063 -0.053515979   -28385.414    453.63646    1.3471277 -0.028245745 -0.0019441739    1.3474252    137.31785    137.35675    4.3069932 
  157000       628000    9832.3854   -38061.273    274.85722 -0.074301882   -28228.887    296.72593    3.6884487 -0.078341563 -0.0053725772    3.6892845    137.23785    137.34366     4.320613 
  157200       628800     9993.398   -38160.898    279.35821  0.042373876     -28167.5    234.74026    1.5207399 -0.031712656 -0.0022160685    1.5210721    137.15785    137.20171    4.5897632 
  157400       629600    9865.9043   -38174.306    275.79422   0.02223406   -28308.401    374.91288   -1.5963358  0.033027118 0.0010888304   -1.5966777    137.07785    137.03263     4.584902 
  157600       630400    9895.3157   -38248.617     276.6164   0.10979244   -28353.301    420.60519    -2.597918  0.056021989 0.0030184857   -2.5985237    136.99785    136.92401    4.4972324 
  157800       631200    9858.1767   -38399.402     275.5782 -0.0033746572   -28541.226    605.85803   -4.6648584  0.097551873 0.0043188994   -4.6658803    136.91785    136.78494    4.1537629 
  158000       632000    9892.4568   -38333.063    276.53648  0.069861898   -28440.606    503.41517   -3.3134077  0.070474337 0.0061802514   -3.3141628    136.83785    136.74356    3.8309032 
  158200       632800    9853.5289   -38450.817    275.44827 0.0042251518   -28597.288    660.81576   -5.7021835    0.1257283  0.011096315   -5.7035802    136.75785    136.59529    3.4532197 
  158400       633600    9988.8623   -38238.125    279.23142  0.044743878   -28249.263    313.85093    -3.379689  0.077672871 0.0046600652   -3.3805847    136.67785    136.58166    2.9949965 
  158600       634400    9762.7059   -38395.784    272.90938   0.16618001   -28633.078    696.77635  -0.79835523   0.01744199 0.00027200051  -0.79854578    136.59785    136.57543    2.8212774 
  158800       635200     9914.047   -38316.615    277.14001  0.015040358   -28402.568    466.18159   -6.9762699   0.15268538 0.0091011106   -6.9779465    136.51785    136.31888    2.5560368 
  159000       636000    9800.0617   -38257.429    273.95364  -0.10407761   -28457.367    522.70521   -5.5476566   0.12759679 -0.00048679204   -5.5491238    136.43785     136.2797    2.1276606 
  159200       636800    9782.4687   -38280.465    273.46184 0.0069251524   -28497.996    562.94572   -1.3089476  0.030728028 -0.00014793614   -1.3093082    136.35785    136.32084    1.9529622 
  159400       637600    9879.2799   -38188.782    276.16813 -0.028336526   -28309.502    373.28028  -0.36317794 0.0083674717 0.00019552353  -0.36327437    136.27785    136.26787    1.8108314 
  159600       638400    9795.9348   -38365.029    273.83827   -0.0558417   -28569.094    632.22247    2.4892335 -0.054522406 -0.00015499924    2.4898305    136.19785    136.26939    1.8894581 
  159800       639200    9921.7058   -38206.679    277.35411   0.05289715   -28284.973     350.0973    3.5463851 -0.079749127 -0.0025947521    3.5472826    136.11785     136.2196    2.1981174 
  160000       640000     9795.128   -38127.159    273.81572  0.091039534   -28332.031    398.78803     3.679108  -0.07894295 -0.0062985007    3.6799602    136.03785    136.14339    2.4442724 
  160200       640800    9757.4225   -38156.471    272.76169 -0.00090487647   -28399.048     465.4552    6.4985214  -0.13505537 -0.013280459    6.4999382    135.95785    136.14396    2.7602532 
  160400       641600    9809.0769   -38175.399    274.20565  0.072306221   -28366.322    431.52838     5.765646  -0.12489702 -0.011182661    5.7670094    135.87785    136.04302    3.3263228 
  160600       642400    9882.9174   -38338.094    276.26981 -0.016476275   -28455.176    519.68457    3.0562276 -0.065392896 -0.0088109886    3.0569398    135.79785    135.88559    3.6915749 
  160800       643200    9882.6106   -38212.973    276.26123  0.064638088   -28330.362    398.02133   0.71351536 -0.015417779 -0.001887256   0.71368441    135.71785    135.73864    3.9291645 
  161000       644000    9914.4884   -38276.252    277.15236   -0.1035217   -28361.763    427.83787    3.8951986 -0.080213737 -0.008984852    3.8960348    135.63785    135.74956    4.0404428 
  161200       644800    9877.4493   -38490.254    276.11695 -0.0068368235   -28612.805    675.63284    7.8623851  -0.15782606 -0.023712827    7.8640047    135.55785    135.78294    4.3698809 
  161400       645600    9759.2205    -38417.21    272.81195  0.061906863    -28657.99    718.94434    5.1597507  -0.10502305  -0.01195317    5.1608333    135.47785     135.6257    4.9061568 
  161600       646400    9892.2735    -38363.45    276.53135  0.085378688   -28471.177    534.31785    4.0940069 -0.084338566 -0.0055158435    4.0948792    135.39785    135.51525    5.3100438 
  161800       647200    9842.9819   -38135.764    275.15344 -0.024664078   -28292.782    360.10249   -1.2856029  0.026726948 0.0019891246   -1.2858823    135.31785    135.28151      5.55491 
  162000       648000    9831.3069   -38269.069    274.82708 0.0027835254   -28437.762    506.69454   -6.0480712   0.12250415  0.014813102   -6.0493298    135.23785    135.06541    5.2445126 
  162200       648800    9738.2053     -38208.9    272.22449 -0.054130014   -28470.694    537.86165   -3.4041344  0.071766463 0.0053134252   -3.4048949    135.15785    135.06097     4.926432 
  162400       649600    9902.9046    -38236.56    276.82854  0.096700831   -28333.655    396.66128   -6.1995919   0.13264153 0.0052400609   -6.2010129    135.07785    134.90108    4.4532659 
  162600       650400    9901.8522   -38346.251    276.79912   0.17048951   -28444.399     506.6461   -5.8671758    0.1285374  0.010962353   -5.8685939    134.99785    134.83058    3.9378581 
  162800       651200    9817.5638    -38254.82     274.4429   0.10241497   -28437.256    501.45122   -1.3995408  0.031137118 0.0035074025   -1.3998915    134.91785    134.87825    3.6663089 
  163000       652000    9912.0674   -38070.739    277.08468 -0.036477006   -28158.671    225.16292    2.9855919  -0.06748265 -0.0060648905    2.9863606    134.83785    134.92357    3.7587822 
  163200       652800    9791.7184   -38078.704    273.72041  0.030557298   -28286.986    353.48051  0.067212958 -0.0015570596 -0.00014014057  0.067231137    134.75785    134.76017    3.8609577 
  163400       653600    9865.1933   -38293.805    275.77435  -0.03767263   -28428.612    493.35528  -0.29773156 0.0068828199 0.00077690007  -0.29781212    134.67785    134.66974    3.7539034 
  163600       654400    9783.3258    -38326.78     273.4858  0.093744716   -28543.454    604.92278   -0.7158073  0.017089608 0.0027824762  -0.71601668    134.59785    134.57779    3.8223679 
  163800       655200    9753.8244   -38323.618    272.66111 -0.032517645   -28569.794    631.47071   -5.5659486   0.12889525  0.017657571   -5.5674689    134.51785    134.35918    3.5539121 
  164000       656000    9770.6205   -38139.019    273.13063 -0.076155906   -28368.399     433.2173   -3.6576527   0.08640074  0.010761446   -3.6586889    134.43785    134.33372    3.1405989 
  164200       656800    9759.6125   -38306.591    272.82291  -0.16546231   -28546.978    615.07311   -1.3217718  0.030812018 0.0029123012   -1.3221341    134.35785    134.32047    3.0459322 
  164400       657600    9835.5055   -38206.239    274.94444  0.038953477   -28370.733    437.17311    1.2703165 -0.030412006 -0.003327099    1.2706848    134.27785    134.31455    2.9831227 
  164600       658400    9853.1129   -38295.549    275.43665  0.069416475   -28442.436      503.833   -4.3801289   0.10448781  0.013306863   -4.3813952    134.19785    134.07307     2.815872 
  164800       659200     9759.807   -38277.719    272.82835   0.11824013   -28517.912    577.51777   -6.6109226   0.15743018  0.017425111   -6.6128198    134.11785    133.92931    2.3916752 
  165000       660000    9868.8877   -38402.648    275.87762 -0.042778795   -28533.761     595.7648   -3.2237552  0.077364634  0.010151793   -3.2246994    134.03785    133.94612    1.8951627 
  165200       660800    9817.2172   -38173.577    274.43321  -0.11028171   -28356.359    420.25162   -5.3122466   0.12476257  0.019943988   -5.3137489    133.95785    133.80643    1.5867947 
  165400       661600    9827.1201   -38324.584    274.71004  -0.11136271   -28497.464    561.26786   -2.7015775   0.06433707 0.0069414571   -2.7023524    133.87785    133.80104    1.2996302 
  165600       662400    9953.4668   -38201.478    278.24197  0.020414488   -28248.011    310.41089  -0.23591392 0.0057600754 0.00050556877  -0.23598477    133.79785    133.79151    1.1967341 
  165800       663200    9962.5497   -38350.942    278.49587  0.001116294   -28388.392    451.58218  -0.11746583 0.0028644996 0.00038958201  -0.11750139    133.71785    133.71489    1.1087684 
  166000       664000     9809.251   -38421.186    274.21052  0.016046813   -28611.934    673.61427    2.1862341 -0.054549191 -0.0045615596    2.1869193    133.63785    133.70073    1.2468153 
  166200       664800    9790.5306   -38447.366     273.6872  0.033667453   -28656.835    717.53946    3.3299334 -0.079091622 -0.0085746577    3.3308836    133.55785    133.65342    1.4750013 
  166400       665600     9794.436   -38468.011    273.79638 -0.0099100887   -28673.575    733.64921    3.9390283 -0.092214039 -0.014096303    3.9401328    133.47785    133.59082    1.7197828 
  166600       666400     9823.724    -38276.32     274.6151  0.027509529   -28452.596    514.13751    1.4231646 -0.034088428 -0.0051736136    1.4235821    133.39785    133.43892    2.0170147 
  166800       667200    9773.8068   -38292.997     273.2197 -0.020802106    -28519.19    581.44737    5.8176271   -0.1346671 -0.021317174    5.8192245    133.31785    133.48451    2.2137749 
  167000       668000    9786.3249   -38342.948    273.56964  0.033204075   -28556.624    620.34272    7.2895525  -0.17165454 -0.029202426    7.2916318    133.23785    133.44658    2.7660656 
  167200       668800    9967.1816   -38462.529    278.62535 -0.081460589   -28495.347    559.16728    6.5941457  -0.16028267 -0.034325281    6.5961827    133.15785    133.34671    3.3690722 
  167400       669600    9853.8056   -38094.473    275.45601 0.0058511096   -28240.668     305.1497    6.3475665  -0.15601429 -0.026610749    6.3495393    133.07785    133.25966     3.904787 
  167600       670400    9891.5807   -38179.207    276.51199 0.0082071365   -28287.627    352.91027    3.7387292 -0.092081623 -0.015635769    3.7398956    132.99785     133.1051    4.3335146 
  167800       671200    9848.5762   -38320.073    275.30983 -0.032599505   -28471.497    537.25547     2.250406 -0.055495724 -0.0095541875    2.2511104    132.91785    132.98257    4.5648715 
  168000       672000    9826.0059   -38169.874    274.67889 -0.029659034   -28343.869    411.14716    1.4184785 -0.035429624 -0.0039485514    1.4189264    132.83785    132.87879    4.7025426 
  168200       672800    9803.4325    -38191.37    274.04787 -0.056641835   -28387.937    455.94399   -2.7489687   0.06850403 0.0094903186   -2.7498385    132.75785    132.67968    4.5668427 
  168400       673600    9825.7401   -38281.564    274.67146 0.0080098815   -28455.824     521.7405  -0.66273669  0.016463145  0.002194246  -0.66294477    132.67785    132.65931    4.4345279 
  168600       674400    9939.2768   -38222.979     277.8453   0.14309052   -28283.702    348.24509    2.1440054 -0.054001818 -0.0077382437    2.1446994    132.59785    132.65953     4.520232 
  168800       675200    9789.0164   -38298.968    273.64487  0.046164286   -28509.952    574.42069    3.7359133 -0.093950584 -0.015400543    3.7371262    132.51785    132.62502    4.8141518 
  169000       676000    9819.5858   -38256.935    274.49942 0.00041609393    -28437.35    503.59143    2.0494829 -0.054022985 -0.0092764331    2.0502158    132.43785    132.49683    5.0800345 
  169200       676800    9713.4639    -38294.77    271.53286 -0.030106089   -28581.307    648.46863    4.4227273  -0.11532383   -0.0214505    4.4242826    132.35785    132.48466    5.3339052 
  169400       677600    9800.9851   -38140.324    273.97945 0.0062355635   -28339.339    407.05646    4.6497528  -0.11979098 -0.018870644    4.6513339    132.27785    132.41114    5.6675076 
  169600       678400    9760.2647   -38266.444    272.84114  0.065205515   -28506.179    574.53182    1.9199772 -0.048298136 -0.008068243    1.9206015    132.19785    132.25312    5.9934101 
  169800       679200     9795.315    -38285.54    273.82095  0.030421613   -28490.225    556.59039   -7.6749895   0.18853386  0.027467029   -7.6773539    132.11785     131.8989    5.7696833 
  170000       680000    9919.3463   -38338.189    277.28815 -0.077629657   -28418.843    485.90085   -1.3911994  0.035484954 0.0048381722   -1.3916603    132.03785    131.99849    5.4115909 
  170200       680800    9861.8047   -38294.232    275.67962  0.027789056   -28432.428    497.55167  -0.88575394  0.022535163 0.0030802422  -0.88604591    131.95785    131.93293    5.3288856 
  170400       681600    9823.4834   -38270.919    274.60838  0.047569729   -28447.436     512.3501   -6.5677823   0.16202649  0.013987729   -6.5697955    131.87785    131.69054    4.9719878 
  170600       682400    9982.0772   -38194.797    279.04175 -0.0041617027   -28212.719    278.50872   -8.9811528   0.22196272  0.017654345   -8.9839125    131.79785    131.54157     4.542586 
  170800       683200    9745.6122   -38194.292    272.43154 -0.028589556    -28448.68    515.03776    -5.678708   0.14354529  0.012621376    -5.680536    131.71785    131.55595    3.9564509 
  171000       684000    9829.8976   -38158.633    274.78768 -0.063652023   -28328.735    395.50433   -1.0233031  0.025661178  0.001981968   -1.0236267    131.63785      131.609    3.6504142 
  171200       684800    9769.9121   -38187.266    273.11083 -0.031458871   -28417.354    483.78303  -0.44888526   0.01121025 0.0011995906  -0.44902682    131.55785    131.54542    3.5927829 
  171400       685600    9757.4649   -38156.665    272.76288  0.031807966     -28399.2    462.89113     -3.78203  0.092942026 0.0092597739   -3.7831832    131.47785    131.37016    3.4397942 
  171600       686400    9857.9687   -38240.015    275.57239 -0.050239454   -28382.046    446.23804   -2.6616136  0.068771364 0.0069798021   -2.6625111    131.39785    131.32218     3.220219 
  171800       687200    9908.6699   -38136.537     276.9897  0.075044289   -28227.867    292.78883   -1.7984625  0.045495531 0.0050652792    -1.799045    131.31785    131.26685    3.0213282 
  172000       688000    9933.4826   -38217.442    277.68332  0.017790802    -28283.96    348.64579   -3.8278921  0.098162011  0.011263075   -3.8291671    131.23785    131.12884    2.7178591 
  172200       688800    9856.0762   -38212.394    275.51948  0.065500893   -28356.317    420.81949   -2.9742719  0.076244253 0.0087199172   -2.9752617    131.15785    131.07324    2.4845426 
  172400       689600     9851.805   -38236.661    275.40009  -0.16986919   -28384.856     449.4746   0.34332845 -0.0088787268 -0.00060757027   0.34344377    131.07785    131.08806    2.4288157 
  172600       690400    9775.3924   -38282.991    273.26403 -0.069527204   -28507.598    570.98276   -1.9343565  0.050592423 0.0032908196   -1.9350208    130.99785    130.94296    2.4526856 
  172800       691200    9772.8078   -38149.225    273.19177   0.11414828   -28376.418    438.82771    1.0205233 -0.026116683 -0.0010153576     1.020858    130.91785    130.94742    2.3956405 
  173000       692000    9880.1096    -38143.19    276.19132  0.027542277    -28263.08    327.39581            0            0            0            0    130.83785    130.83832    2.4343703 
  173200       692800    9778.8737   -38021.666    273.36134 -0.036509834   -28242.792    308.08467   -1.5720576  0.040947301 0.00055415088   -1.5725909    130.75785    130.71332    2.4008103 
  173400       693600    9885.5899    -38169.66    276.34452 -0.025103841    -28284.07    349.20011   -1.0749175  0.027333667  0.000698522   -1.0752652    130.67785    130.64753    2.3076091 
  173600       694400    9811.9504   -38203.495    274.28598   0.05806902   -28391.545    455.21747   -1.1530316  0.028568947 -0.00068890521   -1.1533857    130.59785     130.5653    2.2478189 
  173800       695200    9801.0209   -38201.198    273.98045  0.020481066   -28400.177    463.37083   0.57848572 -0.014720228 -0.00011808705   0.57867299    130.51785    130.53478    2.2014733 
  174000       696000    9856.1569   -38205.175    275.52174 -0.044183276   -28349.018    414.55263    3.4191285 -0.084492056 -0.005499748    3.4201768    130.43785    130.53597    2.3576607 
  174200       696800    9969.7173   -38161.229    278.69624 -0.037643117   -28191.512    257.76431    3.0016774 -0.076785644 -0.0027154983    3.0026606    130.35785    130.44404    2.6324084 
  174400       697600    9831.0778   -38284.849    274.82067  0.038070539   -28453.772    517.32559    2.6551135 -0.067415846 -0.0021442737    2.6559701    130.27785    130.35413    2.8593554 
  174600       698400    9863.3177   -38335.324    275.72191  0.077938071   -28472.006    534.26682    4.9433975  -0.12277398 -0.0051109348    4.9449246    130.19785    130.33953    3.1802568 
  174800       699200    9878.5019   -38305.062    276.14638 -0.033746817    -28426.56    490.34289    3.0638507 -0.078248068 -0.0013926517    3.0648501    130.11785    130.20582    3.4517451 
  175000       700000    9833.9707   -38179.008    274.90154 -0.050601996   -28345.037    410.69305   0.31551892 -0.0085489639 -0.00014631507   0.31563474    130.03785    130.04727    3.4570015 
  175200       700800    9771.2066   -38327.159    273.14701  -0.14153159   -28555.952    621.18613  -0.74919894  0.020549216 0.00081099313  -0.74948114    129.95785    129.93684    3.4850734 
  175400       701600    9860.3502   -38113.638    275.63896  0.033362145   -28253.288    317.66091   -1.6926697  0.046755853 0.0033967089   -1.6933187    129.87785    129.82987    3.3641152 
  175600       702400    9889.2879   -38253.997    276.44789  0.006673065   -28364.709    429.72401   -3.8918634   0.10818549 0.0098342955   -3.8933792    129.79785    129.68701    3.0816098 
  175800       703200    9880.0442   -38124.313    276.18949  0.042764674   -28244.269    308.74554   -1.6452223  0.047624352 0.0040121188   -1.6459163    129.71785    129.67122     2.923072 
  176000       704000    9683.9632   -38143.433    270.70819 -0.018106327    -28459.47    525.59021  -0.11583939 0.0032179099 0.00027021334  -0.11588439    129.63785    129.63494    2.8367826 
  176200       704800    9841.0699   -38141.537    275.09999 -0.059177994   -28300.467    366.83889    3.0614194  -0.08439764 -0.007979294    3.0625929    129.55785    129.64575    2.9965297 
  176400       705600     9727.315   -38218.516    271.92006 -0.041160038   -28491.201     557.2981    4.5070998  -0.12573378 -0.012147526    4.5088696    129.47785    129.60707    3.3002392 
  176600       706400      9863.59   -38260.452    275.72953 -0.010386442   -28396.862    461.83781    3.1726769 -0.088652986 -0.0060036363     3.173921    129.39785    129.48893    3.5881572 
  176800       707200    9923.9544   -38213.675    277.41697  0.002239748    -28289.72    352.65097    6.2425326  -0.17811479 -0.013914861    6.2450886    129.31785    129.49668    4.0299941 
  177000       708000    9755.7161   -38252.335    272.71399 -0.013214606   -28496.618    560.58549    7.9739289  -0.22099848 -0.016578646    7.9770081    129.23785    129.46616     4.622898 
  177200       708800    9943.4979   -38264.716    277.96329  0.031937314   -28321.218    386.27995    4.4944126  -0.12683801 -0.0033116505    4.4962032    129.15785    129.28671    5.0479837 
  177400       709600    9849.9585   -38138.907    275.34847  0.062648316   -28288.948    355.62911    3.9999488  -0.11193239 0.00074692491    4.0015147    129.07785    129.19258    5.3444592 
  177600       710400    9847.7222   -38373.659    275.28595   0.01934979   -28525.937     594.4595  -0.20998399 0.0059487821 0.0001532133  -0.21006829    128.99785    128.99225    5.3996873 
  177800       711200    9898.1609   -38123.957    276.69593 -0.0053939659   -28225.796    294.81755   -2.0237766  0.057017833 -0.00064533346   -2.0245798    128.91785     128.8604    5.3788965 
  178000       712000    9730.8712   -38156.335    272.01947  0.013073217   -28425.463     494.1521   -1.6994418  0.047653834 -0.0015562159   -1.7001105    128.83785    128.78967    5.2231291 
  178200       712800    9818.7447    -38290.43    274.47591 -0.027045766   -28471.685    537.24811    -5.193526   0.14684899 0.0052990254   -5.1956044    128.75785     128.6098    4.9766769 
  178400       713600    9942.0927   -38154.384    277.92401    0.1261411   -28212.292    277.35409   -6.0800855   0.16892682 0.0033757286   -6.0824327    128.67785    128.50447    4.5203104 
  178600       714400    9696.3946    -38323.15     271.0557  0.056414681   -28626.755    692.17767   -5.8845435   0.15935008  0.006503667   -5.8867043    128.59785    128.43006    3.9600044 
  178800       715200    9872.9591   -38230.055    275.99143 -0.025819607   -28357.096    423.38872   -4.4160465   0.12108941  0.005895808   -4.4177102    128.51785    128.39203    3.4852536 
  179000       716000    9875.6413   -38150.433    276.06641 -0.063690199   -28274.792    341.33521   -5.6231941   0.15546507 0.0089396725   -5.6253499    128.43785    128.27753    3.1611561 
  179200       716800    9836.9869   -38253.439    274.98585 -0.030062989   -28416.452    482.73003     1.285277 -0.035282332 -0.0025855962    1.2857638    128.35785    128.39499    2.9775169 
  179400       717600    9798.7158   -38206.344    273.91601   0.11015895   -28407.628    472.79789   -2.0330721  0.055259512 0.0043731979   -2.0338277    128.27785    128.22014    3.0424638 
  179600       718400    9746.8026   -38206.764    272.46482 0.0027241338   -28459.961    523.13574   -4.1436125   0.11109946 0.0095896304   -4.1451128    128.19785    128.07982    2.7168537 
  179800       719200     9810.946   -38150.377     274.2579 -0.016844084   -28339.431    403.70807   0.65576069 -0.017806342 -0.00053569214   0.65600262    128.11785    128.13699    2.6223143 
  180000       720000     9819.008   -38074.487    274.48327  0.042868139   -28255.479    319.86223   -2.1382325  0.060940607 0.0046121279   -2.1391057    128.03785    127.97713    2.6202519 
  180200       720800    9685.1516    -38267.59    270.74141 -0.019920255   -28582.438    647.23463   -3.5547999   0.10209147  0.010251968   -3.5562804    127.95785    127.85664    2.2971354 
  180400       721600    9785.0691    -38276.47    273.53453 -0.033627297   -28491.401     555.6047    1.7132556 -0.048817169 -0.0035689641    1.7139547    127.87785    127.92722    2.3118077 
  180600       722400    9755.6873   -38318.538    272.71318 -0.047014245   -28562.851    626.44245   -2.5666479  0.075352775 0.0049268344   -2.5677585    127.79785    127.72488    2.2392883 
  180800       723200      9906.33   -38355.379    276.92429   0.02235657   -28449.049    513.34795   0.10672671 -0.0031945128 -0.00024447993   0.10677478    127.71785     127.7213    2.1259229 
  181000       724000    9741.9265   -38229.369    272.32851  0.049600242   -28487.442    552.78258   0.90426326 -0.026726612 -0.001530237   0.90465944    127.63785     127.6641    2.0843246 
  181200       724800    9875.0273   -38245.308    276.04925  -0.01330326    -28370.28    433.13754   -1.0587382  0.032197017 0.0017419898   -1.0592291    127.55785    127.52799    2.0709393 
  181400       725600    9783.1224   -38172.016    273.48011 -0.053328629   -28388.894     452.5338    5.5309218  -0.16805783 -0.0065451126    5.5334783    127.47785    127.63635    2.2029286 
  181600       726400    9918.0039   -38208.189    277.25063 -0.013764494   -28290.185    354.65633    4.0243496  -0.11995284 -0.0021869765    4.0261375    127.39785    127.51328    2.6878501 
  181800       727200    9961.8625   -38027.786    278.47666  0.049881379   -28065.924    131.05541  -0.12794507 0.0037576635 9.8900881e-05  -0.12800028    127.31785    127.31459    2.8904908 
  182000       728000    9859.6665   -38278.131    275.61985  -0.11056806   -28418.465    484.27182    1.4965156 -0.042901604 -0.0012834398     1.497131    127.23785    127.28102    2.9336572 
  182200       728800    9991.7395   -38185.437    279.31185  -0.04235954   -28193.698    259.55778    1.5242356 -0.043022665 -0.0024954251    1.5248447    127.15785    127.20182    2.9775029 
  182400       729600    9773.7369   -38287.758    273.21775  0.037271653   -28514.021    578.88945  -0.50934495  0.014234973 4.8809066e-05  -0.50954383    127.07785    127.06369    2.9410342 
  182600       730400    9874.7047   -38270.926    276.04023 -0.016536721   -28396.221     460.4196     1.002744 -0.027978232 4.8975097e-05    1.0031343    126.99785    127.02691    3.0557814 
  182800       731200    9829.3884   -38356.117    274.77345 -0.061581764   -28526.729    591.86792   -2.2345943  0.061798482 0.00038769081   -2.2354487    126.91785    126.85438    2.9474295 
  183000       732000     9919.079   -38158.992    277.28068 -0.072727823   -28239.913    305.41182    1.0364218 -0.029445029 0.00026317792      1.03684    126.83785    126.86787    2.8577741 
  183200       732800    9855.8671   -38391.023    275.51364 -0.021047857   -28535.156     599.7555   -1.1812103  0.034329144 -0.00067736595   -1.1817092    126.75785    126.72449    2.8545506 
  183400       733600     9777.735   -38317.648    273.32951 -0.057973402   -28539.913    604.56062  -0.64964879  0.019066388 -0.00038988546  -0.64992863    126.67785    126.65968    2.7707402 
  183600       734400    9852.3082    -38366.37    275.41415  0.032691819   -28514.061    579.78367    4.0594359  -0.12258261 0.0027307043    4.0612872    126.59785    126.71429    2.9182184 
  183800       735200     9840.337   -38289.729     275.0795  0.033570335   -28449.392    513.63629    5.2947289  -0.16307745  0.005530927    5.2972426    126.51785     126.6696    3.1835871 
  184000       736000    9842.7091   -38281.251    275.14582 -0.054304606   -28438.542    502.64754    5.3642574  -0.16543251 0.0086132704    5.3668146    126.43785    126.59159    3.6533011 
  184200       736800    9893.7958   -38251.495    276.57391 0.0033186775     -28357.7    422.36589    6.2249806  -0.19686213  0.012031741    6.2281043    126.35785     126.5362    4.1098668 
  184400       737600    9861.9975    -38225.74    275.68501  0.061459338   -28363.743    429.74593    7.0653122  -0.20978561 0.0022468642    7.0684264    126.27785     126.4802    4.6927146 
  184600       738400    9864.1141   -38288.752    275.74418 -0.024688688   -28424.638    491.02547    6.3994621  -0.19354177 -0.0024304633    6.4023885    126.19785    126.38117    5.2936844 
  184800       739200    9867.4134   -38214.333    275.83641 -0.054743964    -28346.92    416.18653 -0.078905962 0.0023954265 8.5016571e-05  -0.07894236    126.11785    126.11599    5.5845274 
  185000       740000     9803.547   -38246.104    274.05107 -0.077075198   -28442.557     511.2576   -2.6558033  0.079937928  0.003583701   -2.6570085    126.03785    125.96233    5.3968839 
  185200       740800     9968.577   -38220.189    278.66436  0.081948565   -28251.612    317.95917   -7.6997139   0.23558416   0.01122185   -7.7033253    125.95785    125.73815    4.9726962 
  185400       741600    9961.5472   -38240.133    278.46785 -0.052997847   -28278.586    342.02078   -8.1104636   0.24120912  0.013090646   -8.1140602    125.87785    125.64642    4.3941141 
  185600       742400    9882.5372   -38302.264    276.25918 -0.033698115   -28419.727    482.88666   -10.718168   0.32120128  0.011191285   -10.722985    125.79785    125.49188    3.7401222 
  185800       743200    9885.9149   -38332.411     276.3536  0.052702806   -28446.496    508.91496   -10.585758   0.31529222 0.0035294881   -10.590453    125.71785    125.41567    2.8162708 
  186000       744000    9933.3989   -38250.707    277.68098  0.028770685   -28317.308    380.87923   -5.2042329   0.15057485 -0.00053104993   -5.2064108    125.63785    125.48949    2.2653294 
  186200       744800    10002.311   -38208.208    279.60736 -0.067802982   -28205.897    272.11201  -0.36800998  0.010404826 -0.00039913248  -0.36815726    125.55785    125.54773    1.9797455 
  186400       745600    9799.0293   -38186.803    273.92478 -0.027460605   -28387.773    454.26994  -0.71458651   0.02060771 0.00045631138  -0.71488374    125.47785    125.45782    1.9877073 
  186600       746400    9837.6393   -38162.437    275.00409 -0.018678439   -28324.797    388.39175    3.7140425  -0.10642659 -0.0010854314    3.7155672    125.39785    125.50441    2.2118193 
  186800       747200    9776.2123   -38103.086    273.28695   0.04879168   -28326.874    388.99356    8.2561149  -0.24127153 -0.0093193804    8.2596448    125.31785    125.55424    2.6119013 
  187000       748000    9716.4344   -38196.308     271.6159 0.0036476134   -28479.874     545.2525    3.5758195  -0.10173368 -0.0051091674      3.57727    125.23785    125.34046     3.118111 
  187200       748800    9821.4562   -38205.581    274.55171  0.016195133   -28384.124     449.6532    4.3202719  -0.12820779 -0.0047404981    4.3221764    125.15785    125.28174    3.2435942 
  187400       749600     9844.382   -38156.342    275.19258  0.066648808    -28311.96    375.79119    8.5609991  -0.25892133 -0.017475997    8.5649315    125.07785    125.32296    3.8141959 
  187600       750400     10042.63   -38140.607    280.73446  0.035833452   -28097.977    163.04845    7.1781039  -0.21817158 -0.011777772    7.1814283    124.99785    125.20343    4.5325287 
  187800       751200    9804.0017   -38183.376    274.06378  0.021439696   -28379.374     447.3157    3.8630806    -0.122775 -0.0087394667     3.865041    124.91785    125.02868    4.9882947 
  188000       752000    9858.2265   -38153.655    275.57959 -0.052241169   -28295.429     364.6939    2.6582164 -0.081665281 -0.0082784451    2.6594834    124.83785    124.91423    5.2119012 
  188200       752800    9883.4941   -38210.589    276.28593  0.020047803   -28327.095    395.47981   -3.1240164  0.097546272 0.0054937743   -3.1255437    124.75785    124.66895     5.084953 
  188400       753600    9559.9735   -38059.852    267.24215 -0.0094695799   -28499.878    567.62323   -6.1322122   0.18703102  0.012691801   -6.1350768    124.67785    124.50296    4.7083801 
  188600       754400    9829.3404    -38105.75     274.7721 -0.030324911   -28276.409    343.81931   -2.8877686  0.086881332 0.0053109772   -2.8890802    124.59785     124.5157    4.4824936 
  188800       755200    9961.5581   -38235.323    278.46815 -0.019840535   -28273.765     342.1221   -2.8745486  0.089045672  0.002815005   -2.8759288    124.51785    124.43608    4.2691308 
  189000       756000    9864.7478   -38223.782    275.76189  0.067827002   -28359.034    426.95055    2.6201338 -0.080360223 -0.0010601732     2.621366    124.43785    124.51315    4.3383603 
  189200       756800    9874.1738   -38018.386    276.02539  0.050447475   -28144.212    211.05187    3.1125928 -0.096400303 -0.0025613925    3.1140863    124.35785    124.44722    4.5150779 
  189400       757600    9748.9027   -38110.462    272.52353 0.0023548376   -28361.559    428.86422 -0.045230236 0.0014006897 5.2834792e-05  -0.04525195    124.27785    124.27696    4.4743896 
  189600       758400     9868.593    -38228.64    275.86938 -0.099022483   -28360.047    427.30576    3.2705971 -0.098960688 -0.0001609793     3.272094    124.19785    124.29174    4.7283818 
  189800       759200    9911.7715   -38268.466    277.07641 -0.096595313   -28356.694     424.1809   0.64801632 -0.019652044 -0.00030137298   0.64831431    124.11785    124.13677    5.0186572 
  190000       760000    9758.5428   -38189.598    272.79301  0.077542491   -28431.055    496.86478   -1.1245086  0.034460502 -0.00041578713   -1.1250366    124.03785    124.00611    4.9400332 
  190200       760800    9879.6107   -38244.895    276.17737  0.061778839   -28365.284     431.1496   -3.0081814  0.090712774 0.0016853281   -3.0095493    123.95785    123.87226    4.7531997 
  190400       761600     9874.467   -38126.845    276.03358 -0.087568687   -28252.378    320.43613   -4.2673982    0.1348642 0.0034499292   -4.2695302    123.87785    123.75626    4.3126786 
  190600       762400    9812.9366   -38125.158    274.31355 -0.080518967   -28312.221    380.77799   -5.7599363   0.18556938  0.010552232   -5.7629345    123.79785    123.63359    3.9073891 
  190800       763200    9749.2199   -38133.496    272.53239 -0.032832666   -28384.276    451.68037   -7.4828393   0.23554894  0.011757152    -7.486555    123.71785    123.50435    3.3121479 
  191000       764000    9850.2498   -38156.343    275.35661 -0.0095897989   -28306.094    371.41085    -6.349755   0.20701274 0.0075842781   -6.3531331    123.63785    123.45673    2.9136876 
  191200       764800    9782.8429    -38219.59     273.4723   0.10472075   -28436.747    499.05875   -5.6642725    0.1865146   0.01343529   -5.6673584    123.55785    123.39632    2.4307728 
  191400       765600    9804.0349   -38202.702    274.06471  0.030204704   -28398.667    460.97313   0.62560514 -0.021141734 -0.00076451963   0.62596273    123.47785    123.49613     2.241232 
  191600       766400    9817.9597    -38168.67    274.45396  -0.12170001    -28350.71    414.78454            0            0            0            0    123.39785    123.39764    2.2430691 
  191800       767200    9728.8423   -38220.829    271.96275 -0.056800408   -28491.987    557.74402   -1.1977977  0.037673637 0.0011503371   -1.1983906    123.31785    123.28401    2.2456405 
  192000       768000    9886.5181   -38091.895    276.37046 -0.00010027706   -28205.377    269.14983    2.0737224 -0.065146409 -0.0032409759     2.074748    123.23785    123.29753    2.3755139 
  192200       768800    9824.0552   -38273.742    274.62436  0.013492921   -28449.687    510.17612   0.94746734 -0.029426837 -0.00098627755   0.94792472    123.15785    123.18533    2.3717804 
  192400       769600    9823.5511   -38195.487    274.61027  0.066669387   -28371.936    433.15932    3.6777676   -0.1115817 -0.0052797323    3.6794637    123.07785    123.18338    2.5722017 
  192600       770400    9808.0416    -38353.58    274.17671 -0.0025247228   -28545.539    608.30087    2.0981588 -0.064479871 -0.0045172346    2.0991542    122.99785    123.05823    2.7626884 
  192800       771200    9806.5428   -38188.713    274.13481  0.045837585    -28382.17    447.30126   0.95826598  -0.02955267 -0.0022015412    0.9587241    122.91785    122.94564    2.8970811 
  193000       772000    9809.4524   -38258.369    274.21615   -0.0354668   -28448.917    515.24783  -0.13325826 0.0041449029 0.00038244639  -0.13332326    122.83785    122.83444    2.9444042 
  193200       772800    9816.8676   -38155.552    274.42343 -0.062172239   -28338.684    402.15681    3.8498716  -0.12250147 -0.015837056    3.8518527    122.75785     122.8683    3.1486567 
  193400       773600    9762.5953   -38294.952    272.90629  0.054151617   -28532.357    596.06232    5.3776153  -0.16954899 -0.013733917    5.3803049    122.67785    122.83197    3.4830928 
  193600       774400    9851.1587   -38222.647    275.38202  0.093208968   -28371.489    435.31429    2.3656209 -0.074365699 -0.0093293966    2.3668079    122.59785    122.66587    3.7350556 
  193800       775200    9756.9506   -38341.069     272.7485  0.084621061   -28584.119    648.40056    1.1641475 -0.036532319 -0.0033292775    1.1647253    122.51785    122.55153    3.8195671 
  194000       776000    9797.8009   -38312.619    273.89044 -0.009611347   -28514.818     579.5999   -2.6677766  0.084925806 0.0043621534   -2.6691316    122.43785    122.36199    3.7017963 
  194200       776800    9908.4086   -38317.899     276.9824  -0.14531691    -28409.49    475.19321   -4.5977436   0.14819488 0.0073480711   -4.6001372    122.35785    122.22682    3.5023939 
  194400       777600    9941.8815   -38219.709    277.91811 -0.015677558   -28277.828    341.48045   -3.6498184   0.11723009 0.0070138176   -3.6517073    122.27785    122.17391     3.205598 
  194600       778400    9879.8212   -38204.014    276.18326 0.0045076774   -28324.192    388.19113  -0.74613498  0.023567179  0.002279459  -0.74651056    122.19785    122.17692    2.8826018 
  194800       779200    9849.6637   -38283.337    275.34023  0.012642653   -28433.674    498.54714    3.3229281  -0.10313589 -0.0070675138    3.3245358    122.11785    122.21324    3.0178588 
  195000       780000    9783.2516   -38277.597    273.48372 -0.040244701   -28494.346    559.15125   -1.0487544  0.032378027 0.0029998486   -1.0492584    122.03785    122.00827    3.1007065 
  195200       780800    9936.6714   -38230.855    277.77246 -0.046627855   -28294.184    360.44659    1.7384893 -0.053169983 -0.0048113746    1.7393088    121.95785    122.00794    3.0885261 
  195400       781600    9824.9283   -38187.101    274.64877 -0.051846083   -28362.172    428.90252  -0.55022445  0.017079944 0.00096319386  -0.55049032    121.87785    121.86252    3.1333244 
  195600       782400    9899.6778   -38175.757    276.73833 -0.097087486   -28276.079    342.26949  -0.34165714  0.010584954 0.0010646032  -0.34182272    121.79785    121.78848    3.2389219 
  195800       783200    9904.4532   -38246.435    276.87183 -0.021136041   -28341.981    407.12068    0.7184619 -0.023033063 -0.0014653473   0.71883251    121.71785    121.73879     3.195996 
  196000       784000    9765.3482    -38328.57    272.98325 0.0032119648   -28563.222    626.03963    6.9601326  -0.22743279 -0.010561884    6.9638555    121.63785    121.83722    3.4167541 
  196200       784800    9999.6416   -38328.469    279.53275  0.018590043   -28328.828    392.79228    3.3267771   -0.1096147 -0.0065027503    3.3285888    121.55785    121.65335    3.8274377 
  196400       785600    9750.1347   -38196.162    272.55796 -0.075406266   -28446.027    512.08159   -1.0525307  0.035028446 0.0020317124   -1.0531154    121.47785    121.44816    3.8397952 
  196600       786400    9763.9014   -38098.777     272.9428 -0.085531692   -28334.876     402.7997     4.826219  -0.15743204 -0.0076550294    4.8287921    121.39785    121.53621    4.0331144 
  196800       787200    9862.4972   -38275.423    275.69898 0.0084001654   -28412.926    480.66511    2.9645474 -0.094084579 -0.0071740957    2.9660486    121.31785    121.40299    4.3888858 
  197000       788000    9912.8734   -38258.447    277.10721  0.027888573   -28345.574    411.05132    4.8053011  -0.15332059 -0.010861944    4.8077588    121.23785    121.37561    4.6374507 
  197200       788800    9813.2933   -38239.574    274.32352   0.02771625   -28426.281    490.03949    1.7959832 -0.057291281 -0.0021148443     1.796898    121.15785    121.20959    4.8934445 
  197400       789600    9863.5667   -38448.328    275.72888 -0.022152592   -28584.761    650.58272   -3.8828915   0.12182228 0.0074052109   -3.8848091    121.07785    120.96725    4.8035519 
  197600       790400    9878.1778   -38336.016    276.13732 -0.021341047   -28457.838    524.85753    2.5444017 -0.081484323 -0.00098909475    2.5457063    120.99785    121.07098    4.7441188 
  197800       791200    9986.6432   -38239.015    279.16939   0.02410429   -28252.371    317.62509   0.28937535 -0.0090700795 -0.00041014438   0.28951775    120.91785    120.92652    4.9221286 
  198000       792000    9737.8441   -38298.555    272.21439  0.048593332   -28560.711    625.41766   -1.5379916  0.049236782 0.0019143225   -1.5387807    120.83785    120.79428    4.8406785 
  198200       792800     9836.382   -38175.579    274.96895  0.023490095   -28339.197     405.0888  -0.25754197 0.0080108192 9.2350983e-05  -0.25766654    120.75785    120.75089    4.7711248 
  198400       793600    9801.8433   -38267.556    274.00344  -0.06470656   -28465.713    535.45951   -2.2070801  0.068247848 0.0022996588   -2.2081362    120.67785    120.61516    4.6840518 
  198600       794400     9869.159   -38162.033     275.8852  -0.04661017   -28292.874    361.22567     -6.98767   0.21781424 0.0098094954   -6.9910708    120.59785     120.3985    4.3094629 
  198800       795200    9775.5056   -38211.787    273.26719  0.062338752   -28436.281    500.97585   -4.1341722   0.12963708 0.0044374731   -4.1362066    120.51785    120.40007    3.7900833 
  199000       796000    9658.8764   -38346.494     270.0069  0.034418111   -28687.618    749.58386   -4.5549568   0.14048695 0.0075195644    -4.557129    120.43785    120.30805     3.479977 
  199200       796800    9825.3756   -38284.409    274.66127  0.032608406   -28459.033    521.22769    -7.790103   0.24781001 0.0089548569   -7.7940487    120.35785    120.13556    2.9410936 
  199400       797600     9854.796   -38181.071    275.48369  -0.03800819   -28326.275    391.18104   -7.5577872   0.23462114 0.0081592469   -7.5614325    120.27785    120.06221    2.4479686 
  199600       798400    9860.9063   -38039.104     275.6545 -0.034747826   -28178.198    244.43177   -2.3015643  0.069853857 0.0023223123   -2.3026253    120.19785    120.13246    2.0060665 
  199800       799200    9825.2331   -38262.742    274.65729  0.033540506   -28437.509    501.71439    1.6230905 -0.048138536 -0.0025380196    1.6238062    120.11785    120.16464    2.0874013 
  200000       800000    9836.7501   -38220.684    274.97924  0.062270733   -28383.934    445.90078    4.6926039  -0.14017111 0.00068626573     4.694697    120.03785    120.17238    2.3360123 
  200200       800800    9771.3208   -38190.831    273.15021  0.024806117    -28419.51     483.5801    1.4561912  -0.04439257 0.00040836631    1.4568678    119.95785    119.99987    2.6681351 
  200400       801600    9729.6356       -38134    271.98493 -0.064055233   -28404.365    470.42888      1.00262 -0.030695955 0.00014928705    1.0030898    119.87785    119.90691    2.8119869 
  200600       802400     9812.575   -38076.234    274.30344  -0.11448094   -28263.659     331.3261    2.4310001 -0.079550396 0.0019721917    2.4323021    119.79785    119.86774     2.850449 
  200800       803200    9867.6561   -38214.299    275.84319 -0.016574921   -28346.643    412.43895    3.1427463  -0.10326261 0.0040514457    3.1444449    119.71785    119.80809    3.0683348 
  201000       804000    9762.2075   -38346.285    272.89545   0.10634537   -28584.077    648.14745  -0.80457517   0.02672391 -0.0018572851  -0.80502101    119.63785    119.61525    3.2173882 
  201200       804800     9640.729   -38348.462    269.49961 0.0012254637   -28707.733    768.89571   -4.4672245   0.15199489 -0.010937212   -4.4698229    119.55785    119.43054    2.9669772 
  201400       805600    9927.3489   -38401.582    277.51186 -0.032300264   -28474.233     537.3073   -2.1600788  0.072825508 -0.0043348281   -2.1613104    119.47785     119.4165    2.7234874 
  201600       806400    9802.7279   -38276.874    274.02817 0.0096318421   -28474.146    539.51724    1.2227578 -0.040363941 0.0019699792    1.2234254    119.39785     119.4332    2.6274916 
  201800       807200     9906.541   -38174.256    276.93019  0.013041415   -28267.715    333.57831    1.5009426 -0.050193444 0.0043690211     1.501788    119.31785    119.36116    2.7328561 
  202000       808000    9879.0988   -38230.231    276.16306 -0.020547123   -28351.132    415.94061    3.9742062  -0.13282715 0.0079423955    3.9764332    119.23785    119.35186    2.8615112 
  202200       808800    9776.4168   -38180.587    273.29266  0.092895743    -28404.17    467.48949    5.7265425  -0.19419722 0.0055241521     5.729837    119.15785    119.32196    3.2736272 
  202400       809600     9953.956   -38364.913    278.25564  0.032881237   -28410.957    474.20053   0.97690071 -0.032618973 0.00031361715   0.97744518    119.07785    119.10618    3.5133524 
  202600       810400    9812.0702   -38258.303    274.28933 -0.032976388   -28446.233    510.39067  -0.35890667  0.012124099 9.3793383e-05   -0.3591114    118.99785    118.98799    3.4750537 
  202800       811200    9849.5737    -38154.52    275.33771 -0.030363109   -28304.946     371.6738    1.8305237 -0.060574604 -0.00091058867    1.8315259    118.91785    118.97058    3.5147909 
  203000       812000    9756.3664    -38065.37    272.73217 -0.098008005   -28309.003    377.86157  -0.52442117  0.017341301 0.00070811959  -0.52470829    118.83785    118.82326    3.4984593 
  203200       812800    9858.5008    -38093.88    275.58726 -0.025346668    -28235.38    302.96387  -0.82748713  0.027214522  0.001075627  -0.82793522    118.75785    118.73459    3.3738751 
  203400       813600    9887.0734   -38249.246    276.38599 -0.018649644   -28362.172    427.11709    1.2891736 -0.043967286 -0.0015348828    1.2899241    118.67785     118.7151    3.5009393 
  203600       814400    9879.6515   -38183.314    276.17851  0.054038952   -28303.663    366.70041   -1.2521181  0.042513294 -0.0011151853   -1.2528401    118.59785    118.56245    3.4279356 
  203800       815200     9781.632   -38351.509    273.43845 -0.024553801   -28569.877    633.75747    3.9657397  -0.13670907 0.0048810964    3.9680984    118.51785    118.63162    3.6037173 
  204000       816000    9797.2554   -38205.694    273.87519 -0.023485252   -28408.439    474.42178   0.11832655 -0.0040957748   9.7595e-05   0.11839745    118.43785    118.44163    3.7380264 
  204200       816800     9935.745    -38180.78    277.74657 -0.015499727   -28245.035    313.92424   -2.0573675  0.070373461 -0.0015684313   -2.0585713    118.35785    118.29943    3.7034081 
  204400       817600    9941.6624   -38263.018    277.91198  -0.10407067   -28321.355    390.70394    -3.674022   0.12736368 -0.0037213915   -3.6762308    118.27785    118.17321    3.3683343 
  204600       818400    9809.6024   -38250.719    274.22034  0.062042354   -28441.117     506.1831   -3.7752549   0.13296999 -0.0016289774   -3.7775963    118.19785    118.09032    3.0594399 
  204800       819200    9800.8392   -38332.541    273.97537  0.032538026   -28531.702    593.81733   -6.2737402    0.2221229 0.00076775838   -6.2776711    118.11785    117.93889    2.6079238 
  205000       820000    9900.5985   -38290.772    276.76407  0.078180138   -28390.174    451.14874   -4.5199617    0.1567315 0.0034328471   -4.5226795    118.03785    117.90903    2.2018163 
  205200       820800    9837.4858    -38283.77     274.9998  0.025065628   -28446.284    508.25108   -1.8819923  0.063604648 0.0018450038   -1.8830677    117.95785    117.90445    1.9158591 
  205400       821600    9977.2403   -38116.449    278.90654 -0.079424237   -28139.208    204.51094    1.3478512 -0.046196112 -0.0023459437    1.3486447    117.87785    117.91678    1.8179239 
  205600       822400    9863.2381   -38123.432    275.71969 -0.039153741   -28260.194    326.53973  -0.52941526  0.018064654 0.00038266098  -0.52972351    117.79785    117.78311    1.8478515 
  205800       823200    9814.6875   -38201.255    274.36249 -0.026961609   -28386.567    451.26136  -0.51903454  0.017334476 -0.00013875992  -0.51932395    117.71785    117.70341    1.8316534 
  206000       824000    9826.9865   -38253.089     274.7063   0.14663601   -28426.103    488.84917   -1.4063162   0.04830406 -0.00060659173   -1.4071456    117.63785    117.59805    1.7919373 
  206200       824800    9759.8999   -38193.171    272.83094 -0.011656724   -28433.271    496.54923  -0.42236362  0.014680809 -0.00026486265  -0.42261877    117.55785    117.54617    1.7099835 
  206400       825600     9913.332   -38177.587    277.12003  -0.01581279   -28264.255    329.13908    2.8985533  -0.10318856  0.001133376    2.9003897    117.47785    117.56112    1.7950881 
  206600       826400    9894.4881   -38161.409    276.59326  -0.12875172   -28266.921    332.39891     2.820818  -0.10164472 -0.0021740064    2.8226495    117.39785     117.4789     1.966448 
  206800       827200    9919.6342   -38288.095     277.2962 0.0090965697   -28368.461    431.89847    4.2013686  -0.15343742 -0.0031634474    4.2041707    117.31785    117.43837    2.2670381 
  207000       828000    9771.7042   -38182.605    273.16093  0.078625312   -28410.901      474.547    5.1328114  -0.18597941 -0.0015360889    5.1361799    117.23785      117.385    2.6787972 
  207200       828800    9892.5374   -38324.145    276.53873  0.046573802   -28431.607    494.47853    8.6522529  -0.31626134 -0.0097709207    8.6580366    117.15785    117.40562    3.2533453 
  207400       829600    9846.1363   -38270.257    275.24162  0.030294029   -28424.121    488.07107    10.137607  -0.37842456 -0.00048220191    10.144667    117.07785     117.3681    3.9491339 
  207600       830400    9717.8507   -38269.845    271.65549 -0.032460067   -28551.994    617.96701    4.6538613  -0.17070424 0.0031532595     4.656992    116.99785    117.13131    4.4489558 
  207800       831200    9773.3058   -38223.397     273.2057   0.10495966   -28450.091    515.29804     1.891134 -0.068453071 0.00017848525    1.8923725    116.91785    116.97232    4.6652736 
  208000       832000    9821.3447   -38197.056    274.54859  0.075033525   -28375.712    440.92242    1.9605709  -0.06885631 -0.002575702    1.9617814    116.83785     116.8943    4.7761285 
  208200       832800    9782.3165   -38215.162    273.45758 -0.0048181425   -28432.846    497.93657  -0.34887549   0.01195591 1.6973811e-07  -0.34908029    116.75785    116.74828     4.973189 
  208400       833600    9897.1085   -38211.027    276.66651  0.058208755   -28313.919    379.62689   -1.4901598  0.052188143 0.0015464148   -1.4910741    116.67785    116.63565    4.9100318 
  208600       834400    9798.8237   -38115.787    273.91903 -0.094297745   -28316.963    384.06655   -1.3786337    0.0471613 0.0026765609   -1.3794427    116.59785    116.55884    4.8831143 
  208800       835200    10065.605   -38241.397     281.3767 -0.057114506   -28175.793    245.03459  -0.15141201 0.0051659563 0.00033502123  -0.15150048    116.51785    116.51392    4.7079986 
  209000       836000    9844.5803   -38131.212    275.19812 -0.085201094   -28286.632    354.34463   -4.3575227   0.15447217  0.010869477   -4.3602734    116.43785    116.31367     4.528808 
  209200       836800    9804.8362   -38133.272    274.08711  -0.02103028   -28328.436    394.72203   -1.8711584  0.065475596 0.0044554436    -1.872309    116.35785    116.30475    4.2222381 
  209400       837600    9854.3683   -38158.178    275.47174 -0.026500199    -28303.81     367.2011   -8.5614769   0.30158277  0.015411336   -8.5668008    116.27785    116.03348     3.944714 
  209600       838400    9812.8668   -38133.771    274.31159 -0.044126503   -28320.904    385.47208   -5.4404689    0.1949992 0.0059600881   -5.4439656    116.19785    116.04271    3.4101934 
  209800       839200    9795.5005   -38136.914    273.82613   -0.0310029   -28341.413    407.81887   -2.5041951  0.090607658 0.0035065081   -2.5058362    116.11785    116.04665    3.1163608 
  210000       840000    9853.2781   -37945.791    275.44126 -0.069218768   -28092.513    160.22195   -1.1558896  0.041992805 0.0016874058   -1.1566534    116.03785     116.0052    3.0182912 
  210200       840800    9832.8504   -38028.316    274.87022 -0.030431472   -28195.465    263.33093    -3.999586   0.14591335 0.0029393708   -4.0022478    115.95785     115.8439     2.639929 
  210400       841600    9917.9619   -38070.956    277.24945 -0.0040737601   -28152.994    218.58699            0            0            0            0    115.87785    115.87792    2.4187922 
  210600       842400    9884.6969   -38244.585    276.31955 -0.0019336855   -28359.888    423.42149   -2.7051447   0.10030629 0.00078325488   -2.7070038    115.79785    115.72091    2.2866515 
  210800       843200    9837.7074    -38215.21      275.006 -0.033493196   -28377.503    439.52861   0.24160708 -0.0091938193 -4.4818589e-05   0.24178195    115.71785    115.72516    2.1391238 
  211000       844000    9935.3308    -38149.65    277.73499  0.076355982   -28214.319    276.80875  -0.30741686  0.011736709 0.00023458685  -0.30764091    115.63785    115.62946    2.2857806 
  211200       844800    9741.8011   -37982.675    272.32501  0.018564131   -28240.873    304.32659   -3.8681996   0.14809384 0.0040158444   -3.8710355    115.55785    115.44765    2.1369783 
  211400       845600     9717.485   -38267.578    271.64527 -0.098739919   -28550.093    614.30538   -2.2139425  0.084674404 0.0051088273    -2.215567    115.47785    115.41495    1.8786512 
  211600       846400    9771.4167    -38247.65    273.15289 -0.0013662752   -28476.233    539.18041   -4.8895213     0.182084 0.0085055184   -4.8929179    115.39785    115.25845    1.5817411 
  211800       847200    9809.3237    -38261.89    274.21255   0.04948027   -28452.566     514.7869   -1.5545948  0.056547672 0.0041239114   -1.5556283    115.31785     115.2738    1.2785957 
  212000       848000    9991.2143   -38146.733    279.29717  -0.10287793   -28155.519     215.7592   -5.2047704   0.19095984  0.010831783   -5.2082836    115.23785    115.08944   0.92663299 
  212200       848800    9807.1895    -38191.81    274.15289 -0.085560949    -28384.62    446.71745  -0.79816078  0.029310042 0.0014192787  -0.79870003    115.15785    115.13543   0.68969141 
  212400       849600    9822.5571   -38031.613    274.58248 -0.089893715   -28209.056    271.92002   -7.1907874   0.25932825  0.013556036   -7.1954748    115.07785    114.87266   0.49233362 
  212600       850400    9620.2235   -38266.367    268.92639  -0.13633752   -28646.144     708.1967   -4.6021218   0.17003399 0.0041491577   -4.6052637    114.99785    114.86667  0.028140258 
  212800       851200    9942.5253   -38314.945     277.9361  -0.02160533    -28372.42    430.63515   -3.5720879   0.13037341 0.0050231241   -3.5744698    114.91785    114.81612  -0.20279419 
  213000       852000    9829.6202   -38248.994    274.77992    0.1102461   -28419.373    475.42067   -2.2465362  0.082202438 0.0027219287   -2.2480412    114.83785    114.77402   -0.3871001 
  213200       852800    9865.9219   -38307.532    275.79471  0.073184455    -28441.61    498.08376   -2.4423209  0.090803755 0.0034280338   -2.4440108    114.75785    114.68842  -0.57832757 
  213400       853600    9810.7118   -38080.996    274.25135  0.074438657   -28270.284    331.05919   -1.8134566  0.069355575  0.001821833   -1.8147833    114.67785     114.6264  -0.74744866 
  213600       854400    9810.0116   -38128.153    274.23178 -0.057428083   -28318.141    380.43882   -1.0014189  0.039302878 0.0015954978   -1.0021912    114.59785    114.56962  -0.86023939 
  213800       855200    9791.2638   -38089.239     273.7077   0.05799797   -28297.975    358.56535   0.93258288 -0.036982592 -0.002405596   0.93331899    114.51785    114.54492  -0.84339704 
  214000       856000    9814.0635   -38282.676    274.34505  0.017509292   -28468.613    526.41846    1.3679209 -0.054027229 -0.0029480565    1.3689906    114.43785    114.47736  -0.76354908 
  214200       856800    9847.8443   -38167.782    275.28937  0.013105115   -28319.938    377.02082   -2.1436899  0.082663218 0.0041205896   -2.1452871    114.35785    114.29696  -0.68222658 
  214400       857600     9812.836    -38156.17    274.31074 -0.021504217   -28343.334    401.08957   -7.7789889   0.30975424  0.025869965   -7.7851966    114.27785    114.05582     -1.04915 
  214600       858400    10002.187     -38216.9    279.60389  -0.14321654   -28214.713    274.61879    -7.705124   0.30213637   0.02456195   -7.7110846    114.19785    113.97793    -1.749064 
  214800       859200    9822.6209   -38199.178    274.58426   0.03608265   -28376.557    431.82433   -13.347852   0.50594298  0.048152335   -13.357524    114.11785    113.73661   -2.6747387 
  215000       860000    9919.8385   -38157.691    277.30191 -0.0065905571   -28237.853    290.65601   -11.721241   0.44974487  0.028172951     -11.7299    114.03785    113.70311   -3.6783468 
  215200       860800     9787.497   -38264.938     273.6024 0.0014110458   -28477.441    529.19415   -11.226634   0.43423664  0.022000132    -11.23505    113.95785    113.63725   -4.6311818 
  215400       861600    9868.5957   -38260.834    275.86946 -0.058512308   -28392.238    444.97246   -10.946583   0.41763587  0.022361751    -10.95457    113.87785    113.56526   -5.5660602 
  215600       862400       9705.5   -38355.891    271.31023 -0.031972956   -28650.391    702.01269   -11.306913   0.44627814  0.011865838   -11.315723    113.79785    113.47494   -6.4692059 
  215800       863200    9804.7919   -38356.494    274.08587 -0.023061485   -28551.702     597.9807   -16.061837   0.63444268  0.017098635   -16.074372    113.71785    113.25898   -7.4835255 
  216000       864000    9868.0133   -38228.045    275.85318 -0.035947727   -28360.032    406.82258   -11.064987   0.43523769  0.010890086   -11.073549    113.63785    113.32186    -8.639124 
  216200       864800    9849.4692   -38229.767    275.33479 -0.040909338   -28380.297    427.25347   -11.725144   0.46831488   0.01739365   -11.734505    113.55785    113.22298   -9.5239982 
  216400       865600    9870.7468   -38298.673    275.92959 0.0038512248   -28427.926    476.23738   -11.507685   0.45801331  0.020534608   -11.516814    113.47785     113.1492   -10.556303 
  216600       866400    10055.696   -38339.466     281.0997 -0.0089038652   -28283.771    329.50251   -10.127592   0.41477829  0.025473979   -10.136114    113.39785    113.10865   -11.529317 
  216800       867200    9856.1803   -38253.491    275.52239    0.0469276   -28397.311    439.31771   -9.7545919   0.39633278  0.020975791   -9.7626627    113.31785    113.03932   -12.287572 
  217000       868000    9723.8457   -38440.896    271.82307 -0.0088583015    -28717.05        758.4   -11.113074   0.44359331  0.029233075   -11.121962    113.23785    112.92048    -13.08836 
  217200       868800     9832.193   -38413.081    274.85185  -0.23501911   -28580.888    624.33908    -10.39446   0.41946875  0.019204387   -10.402938    113.15785    112.86102   -13.900407 
  217400       869600    9857.0046   -38207.128    275.54543 -0.053471667   -28350.124    394.61194   -11.099724   0.45472872  0.023191704   -11.109059    113.07785    112.76085   -14.688839 
  217600       870400    9805.9056   -38388.146      274.117 -0.033856729    -28582.24    625.69226   -8.7693874   0.36467379   0.01722697   -8.7769835    112.99785    112.74748   -15.549936 
  217800       871200    9865.3469    -38356.94    275.77864  0.017919533   -28491.593    532.02996   -7.3625302   0.31110126  0.016618242   -7.3691187    112.91785     112.7077   -16.243899 
  218000       872000    9905.6058   -38292.892    276.90405  -0.03461121   -28387.286    427.62485   -4.8414872   0.20840388 0.0081524297   -4.8459774    112.83785    112.69979   -16.685238 
  218200       872800    9830.1529   -38332.801    274.79482 -0.052539188   -28502.648    542.85853   -4.0782903   0.17456795 0.0022725642   -4.0820253    112.75785    112.64162   -16.973776 
  218400       873600    9742.8071   -38301.827    272.35313  0.045175091    -28559.02    599.82723   -5.8465169    0.2451316 0.0012254058   -5.8516537    112.67785    112.51106   -17.358183 
  218600       874400    9873.0992   -38242.446    275.99535  -0.10674147   -28369.346    408.99208   -8.6245551    0.3634556 -0.0033722525   -8.6322107    112.59785    112.35161    -17.91515 
  218800       875200    9793.1874   -38250.725    273.76147 -0.057086574   -28457.538    495.08424   -10.176603   0.43326607 -0.0024275881   -10.185823    112.51785    112.22723   -18.749238 
  219000       876000    9775.1918    -38327.36    273.25842  0.016928017   -28552.169    584.22687   -14.293869   0.61007452 -0.015753026   -14.306891    112.43785    112.02948   -19.864282 
  219200       876800    9833.1619   -38254.433    274.87893  0.042105196   -28421.271    449.52792    -16.72343    0.7079303 -0.032929042    -16.73844    112.35785    111.88001   -21.201349 
  219400       877600    9736.9809   -38319.692    272.19026  0.017918612   -28582.711    609.56493   -17.415646   0.72705381 -0.037323837   -17.430856    112.27785    111.78023   -22.580325 
  219600       878400    9804.2672   -38500.586     274.0712 -0.060837922   -28696.319    721.96169   -20.116131    0.8503004 -0.043272945   -20.134141    112.19785    111.62299   -23.902797 
  219800       879200    9808.1484   -38334.038     274.1797 -0.089552346   -28525.889    550.04309   -23.165268   0.98433973 -0.053908366   -23.186234    112.11785    111.45579   -25.628005 
  220000       880000    9744.5316    -38270.15    272.40133  -0.17872937   -28525.619    547.47361   -23.911972    1.0274653 -0.081732735   -23.934176    112.03785    111.35442   -27.587984 
  220200       880800    9877.5843   -38308.619    276.12073  0.040244677   -28431.035    452.23541    -20.12624   0.88944271  -0.06616641   -20.145993    111.95785    111.38265    -29.40747 
  220400       881600    9714.4169   -38391.871     271.5595 -0.0064030876   -28677.454    696.56414   -16.403438   0.72684361 -0.072265199   -16.419692    111.87785    111.40912   -30.905262 
  220600       882400    9746.2487   -38192.192    272.44933  0.067853028   -28445.943    465.24627   -17.111921   0.74578639 -0.073693661   -17.128323    111.79785    111.30887   -32.291529 
  220800       883200     10015.85   -38417.658    279.98585  0.022911678   -28401.808    419.13701   -17.931317   0.78564801 -0.066438089   -17.948643    111.71785    111.20543   -33.662679 
  221000       884000    9791.1099   -38340.771     273.7034  0.059052134   -28549.661    568.07118   -10.330369   0.44937483 -0.054430003   -10.340282    111.63785    111.34281   -34.878946 
  221200       884800    9976.8245   -38428.751    278.89491 -0.059315648   -28451.926    469.03011   -11.878694   0.51431224 -0.060072492   -11.889974    111.55785    111.21854   -35.685968 
  221400       885600    9862.6662   -38407.961     275.7037 -0.010671659   -28545.294    561.60195   -11.242592   0.48922386 -0.050173106   -11.253343    111.47785    111.15673   -36.572829 
  221600       886400    9888.6286   -38457.692    276.42946  -0.17184723   -28569.064     584.8445     -12.8772   0.56411898 -0.057003688   -12.889677    111.39785    111.02997   -37.606203 
  221800       887200    9804.8375   -38480.115    274.08714  -0.14495586   -28675.278    689.58935   -11.323243   0.48919904 -0.044292379   -11.333892    111.31785    110.99442   -38.546911 
  222000       888000    9968.9114   -38497.282    278.67371 -0.044182386   -28528.371    537.68082   -14.937871   0.63649038 -0.067501951   -14.951578    111.23785    110.81106   -39.532912 
  222200       888800    9781.4963   -38595.053    273.43466  0.036595679   -28813.556    821.35975   -11.270047   0.48857982 -0.062344815   -11.280805    111.15785    110.83594   -40.521276 
  222400       889600    9965.5856   -38417.319    278.58074  0.055994748   -28451.734    460.59901    -12.43596    0.5545197 -0.058588267   -12.448455    111.07785    110.72258   -41.417296 
  222600       890400    9871.3797   -38312.879    275.94728  -0.16410516   -28441.499    451.17164   -15.458894   0.69179547 -0.079630335    -15.47457    110.99785    110.55612   -42.468922 
  222800       891200    9882.2759   -38388.841    276.25188  -0.11720461   -28506.565    515.76604   -14.466164   0.65210666  -0.10316594   -14.481222    110.91785     110.5045    -43.55557 
  223000       892000    9928.3205   -38451.192    277.53902 -0.049933021   -28522.871    531.08405   -9.2032386   0.41566388 -0.053510184    -9.212776    110.83785    110.57503   -44.509041 
  223200       892800    9890.4803   -38686.304    276.48122 -0.034281686   -28795.823    799.09607   -10.460269   0.47784139 -0.062230293   -10.471362    110.75785    110.45907   -45.293848 
  223400       893600     9882.819   -38597.126    276.26706  0.062126193   -28714.307    715.89026   -9.7713981   0.44139139 -0.054438258   -9.7815137    110.67785    110.39878   -46.171414 
  223600       894400    9839.5081   -38471.604    275.05633  0.091698264   -28632.096    633.08594    -12.88509   0.57248763 -0.087034069   -12.898095    110.59785    110.22973   -47.127387 
  223800       895200    9737.6039   -38411.037    272.20767   0.11832083   -28673.433    676.09598   -11.003494   0.48031271 -0.082020526   -11.014277    110.51785    110.20356   -48.071473 
  224000       896000    9810.1386   -38389.934    274.23533 -0.051816399   -28579.796    583.08513   -7.8653684   0.34290374 -0.059373425   -7.8730635    110.43785     110.2133   -48.784672 
  224200       896800    9750.7019   -38366.454    272.57382  0.048957945   -28615.752    616.54036    -8.283248    0.3516235 -0.076019952   -8.2910564    110.35785    110.12136    -49.31964 
  224400       897600    9768.3842   -38410.204    273.06812 -0.0072835588    -28641.82    640.95666   -10.951316    0.4744639  -0.10121354   -10.962057    110.27785    109.96505   -50.080693 
  224600       898400    9851.2826   -38364.863    275.38548 -0.099423945    -28513.58    512.77535   -12.579868   0.56125431   -0.1111345   -12.592873    110.19785    109.83845   -50.912322 
  224800       899200    9610.5923   -38439.256    268.65716 -0.060609126   -28828.664    826.55817   -11.011174   0.48766226  -0.10405554   -11.022459    110.11785    109.80332   -51.887581 
  225000       900000    9865.2315    -38547.24    275.77541  0.027425773   -28682.009    677.81327   -9.9812162   0.45887176 -0.095277022   -9.9922129    110.03785    109.75276   -52.814987 
  225200       900800    9909.0465   -38501.336    277.00023 -0.029521088   -28592.289    587.43864   -11.277809   0.54017002  -0.11208291   -11.291294    109.95785    109.63564   -53.554835 
  225400       901600    9918.2547   -38515.182    277.25764 -0.036919082   -28596.927    590.37669   -15.045792   0.72266733   -0.1335636    -15.06373    109.87785    109.44786   -54.673472 
  225600       902400    9805.5516   -38400.868    274.10711 -0.063635837   -28595.316    588.12129   -15.191087   0.72132923  -0.12219724   -15.208694    109.79785    109.36372   -55.879226 
  225800       903200    9912.6802   -38489.826    277.10181 -0.033762781   -28577.146    569.24015   -16.100062   0.76688101  -0.13812585   -16.118908    109.71785    109.25771   -57.141899 
  226000       904000    9769.1125   -38483.196    273.08848  -0.13219123   -28714.083    701.90275   -16.763299    0.7912452  -0.13848958   -16.782534    109.63785    109.15875   -58.413565 
  226200       904800    9955.6816   -38608.795    278.30388   0.08115034   -28653.113    637.27446   -16.145826   0.77394159  -0.12156774   -16.164822    109.55785     109.0964    -59.65035 
  226400       905600      9956.83   -38641.883    278.33598   0.10504208   -28685.053    666.03413   -17.934787   0.87917465  -0.13234521   -17.956811    109.47785     108.9652   -61.004592 
  226600       906400    9932.7871   -38490.537    277.66388 -0.026631623    -28557.75    539.92283   -17.410992   0.84467674  -0.13756471   -17.432012    109.39785    108.90019   -62.349695 
  226800       907200     9794.725   -38626.636    273.80445  -0.10607503   -28831.911    815.07543   -17.860599   0.86386993  -0.16447072   -17.882235    109.31785    108.80733   -63.791171 
  227000       908000    9803.3424   -38500.766    274.04535 -0.095256921   -28697.424    681.98079   -10.587875   0.51652338 -0.099514057   -10.600933    109.23785    108.93537   -64.952204 
  227200       908800    9915.6413   -38458.196    277.18458 -0.073813756   -28542.555    522.18609   -15.736517   0.75360048  -0.14004456   -15.755174    109.15785     108.7081    -65.97021 
  227400       909600     9783.503   -38726.188    273.49075 -0.019179352   -28942.686    918.11959   -17.626503   0.85032539  -0.15960548   -17.647724    109.07785    108.57403   -67.391498 
  227600       910400    9948.6216   -38658.596    278.10652  0.087890767   -28709.975    681.62624   -18.418047   0.89762249  -0.19052089   -18.440892    108.99785    108.47137   -68.663713 
  227800       911200    9855.8036   -38532.854    275.51186  0.030774324   -28677.051    649.20645   -16.957563   0.82742856  -0.17309662    -16.97862    108.91785    108.43315   -70.117059 
  228000       912000    9765.5915   -38501.092    272.99005 -0.084400959     -28735.5     711.6012   -12.909638   0.63952614  -0.13002725   -12.926123    108.83785    108.46893   -71.322042 
  228200       912800    9764.5935   -38610.469    272.96215 -0.060446208   -28845.876    821.53117    -13.38572   0.67044416  -0.14328608   -13.403266    108.75785     108.3753    -72.52726 
  228400       913600    9780.9914   -38506.892    273.42054 -0.045533807   -28725.901    698.88232   -11.632061   0.57694012  -0.11684224   -11.646946    108.67785    108.34548   -73.551176 
  228600       914400    9707.9914   -38519.414    271.37988 -0.0053305167   -28811.423      782.992   -8.7731073   0.44800793 -0.089484918   -8.7849946    108.59785    108.34725   -74.379999 
  228800       915200    9794.8305   -38540.744     273.8074 -0.085311012   -28745.913    716.83728    -10.75911   0.55385307  -0.12619032   -10.774095    108.51785    108.21042   -75.083919 
  229000       916000    9782.4632   -38638.655    273.46168  -0.12616457   -28856.192    827.44769   -11.057386   0.55689769   -0.1308453   -11.072174    108.43785     108.1219   -75.972282 
  229200       916800    9874.2441   -38632.841    276.02735 -0.092960168   -28758.596    727.50635   -10.717854   0.54408215  -0.12714225   -10.732408    108.35785    108.05161   -76.848327 
  229400       917600    9946.0595   -38652.606     278.0349   0.15092618   -28706.547    673.36056     -12.8614   0.66052383   -0.1508748   -12.879234    108.27785    107.91027   -77.813159 
  229600       918400    9861.1209   -38657.348     275.6605 -0.052512465   -28796.227     759.8709   -12.763452   0.65879503  -0.15073582   -12.781332    108.19785    107.83307   -78.896792 
  229800       919200    9922.2684   -38559.281    277.36984  0.012197547   -28637.013     599.9235   -13.834301   0.69867737  -0.15955947   -13.852852    108.11785    107.72245   -80.090602 
  230000       920000    9842.4114   -38521.956    275.13749  -0.12518218   -28679.545    640.85403   -14.054583   0.69725776  -0.15603321   -14.072733    108.03785    107.63617   -81.216901 
  230200       920800    9739.4531   -38668.665    272.25937  -0.13414668   -28929.212    889.56777   -15.992811   0.79382582  -0.16120313   -16.013311    107.95785    107.50073   -82.337948 
  230400       921600    9727.3455   -38530.841    271.92091  -0.14266239   -28803.496    762.90713   -15.481328   0.75961741  -0.17259138   -15.500913    107.87785    107.43537   -83.501211 
  230600       922400    9853.0032   -38618.312    275.43358 -0.032542987   -28765.309    723.71275   -15.423276   0.76649775   -0.1598942   -15.443139    107.79785    107.35702   -84.732813 
  230800       923200    9966.6164   -38571.797    278.60956 -0.088920158   -28605.181    563.21776    -14.40528   0.70318322  -0.15551827   -14.423271    107.71785    107.30616   -85.912598 
  231000       924000    9954.1856    -38799.59    278.26206  -0.13337276   -28845.404    800.24486   -14.638437   0.72270722  -0.17177379   -14.657273    107.63785    107.21947   -87.098003 
  231200       924800    9844.6934   -38672.289    275.20129  -0.02258832   -28827.595    779.38182   -15.263297   0.76107348    -0.189926    -15.28344    107.55785    107.12158   -88.369604 
  231400       925600    9812.4791   -38665.989    274.30076  0.082736568    -28853.51    802.14094   -17.752802   0.88879772  -0.22249596    -17.77643    107.47785    106.97035   -89.758721 
  231600       926400    9777.4716   -38607.066    273.32215 -0.0033408677   -28829.594    777.70368   -18.248462   0.90049168  -0.22709259   -18.272077    107.39785    106.87619   -91.198211 
  231800       927200    9889.3319    -38554.53    276.44912  -0.15562849   -28665.199    615.30081   -18.943047   0.95134994  -0.24502755   -18.968504    107.31785    106.77629   -92.583086 
  232000       928000    9726.6095    -38435.77    271.90034   -0.1122763    -28709.16    659.75178   -17.540656   0.89754095  -0.24611967   -17.565329    107.23785    106.73638   -94.022592 
  232200       928800    9912.6759    -38615.61    277.10169 -0.0060211196   -28702.934     648.7465   -17.755004   0.89859353  -0.24871794   -17.779469    107.15785    106.65026   -95.510169 
  232400       929600    9846.3325   -38647.452     275.2471  0.075603931    -28801.12    741.51931   -19.195434   0.98929304  -0.26796774   -19.222778    107.07785    106.52903   -97.105436 
  232600       930400    9705.0018    -38779.64    271.29631  0.043123837   -29074.638    1016.1558   -16.195588   0.84019892  -0.18659943   -16.218441    106.99785    106.53487   -98.596918 
  232800       931200    9815.6252   -38720.536     274.3887 -0.010277134   -28904.911    845.13988   -18.943829   0.98454786  -0.20729058   -18.970529    106.91785    106.37623   -99.984645 
  233000       932000    9877.3564   -38625.839    276.11436  -0.10228411   -28748.482     689.3086   -14.640775   0.75460415    -0.171393    -14.66121    106.83785    106.41936    -101.3002 
  233200       932800    9722.4947    -38639.64    271.78531   -0.1245276   -28917.146    855.39726   -15.218106   0.77658519  -0.17956941   -15.238966    106.75785    106.32285   -102.53836 
  233400       933600    9714.4931    -38776.56    271.56163 -0.045366085   -29062.067    997.54273   -16.376607   0.85348101   -0.1894324   -16.399926    106.67785    106.20968   -103.73001 
  233600       934400    9867.9841   -38795.254    275.85236 -0.074060402    -28927.27    862.99623   -10.612117   0.55427334  -0.12385754   -10.627304    106.59785    106.29461   -104.84924 
  233800       935200    9662.2879   -38828.263    270.10227 -0.038372842   -29165.975    1100.1004   -12.817204   0.68264325  -0.13378926   -12.836067    106.51785     106.1515   -105.73066 
  234000       936000     9828.352   -38870.373    274.74447 -0.059347111   -29042.021    976.63823     -14.1808   0.76395207  -0.16169835   -14.202283    106.43785    106.03247   -106.88592 
  234200       936800    9904.3294   -38694.647    276.86837 -0.021298808   -28790.318    723.60578    -13.28978   0.70221651  -0.13963044   -13.309052    106.35785    105.97799   -107.96174 
  234400       937600    9767.3038   -38748.208    273.03791   0.10592709   -28980.904    910.92236   -12.722417   0.67465893  -0.13378851   -12.740995    106.27785    105.91422   -109.01468 
  234600       938400    9721.9241   -38906.634    271.76936  -0.11060093    -29184.71    1112.3411    -14.35386   0.76565174  -0.15781878   -14.375132    106.19785    105.78753   -110.07508 
  234800       939200    9784.0335   -38789.036    273.50558 -0.081760321   -29005.002    931.02137   -16.258279   0.87224213  -0.18218194   -16.282679    106.11785    105.65303    -111.2722 
  235000       940000    9796.9916   -38717.907    273.86782  -0.11276272   -28920.916    845.33227   -18.780846    1.0190063  -0.21794105   -18.809733    106.03785    105.50083   -112.72555 
  235200       940800    9831.1842   -38807.134    274.82365  -0.11075746    -28975.95    901.98316   -14.717289   0.79816603   -0.1912557   -14.740157    105.95785     105.5371   -114.11026 
  235400       941600    9839.1745   -38662.157    275.04701  0.016075781   -28822.983    746.96478   -16.358202   0.86979187  -0.21075664   -16.382666    105.87785    105.41017   -115.43519 
  235600       942400    9939.7407   -38705.328    277.85826  -0.09434407   -28765.587    688.11088   -16.958232   0.89597189  -0.24274422    -16.98362    105.79785      105.313   -116.74866 
  235800       943200    9742.1865   -38601.139    272.33578 -0.079637249   -28858.953     779.4644   -16.353091   0.86224339  -0.24824693   -16.377688    105.71785    105.25032   -118.06234 
  236000       944000     9838.951   -38699.738    275.04076 -0.019539315   -28860.787    780.07707   -17.324448   0.90469647  -0.26353137   -17.350056    105.63785    105.14253   -119.42894 
  236200       944800    9939.7509   -38901.575    277.85855  0.011226873   -28961.825    880.69248   -12.844425   0.67825938  -0.18950018   -12.863716    105.55785    105.19071   -120.67115 
  236400       945600    9924.6794   -38872.678    277.43724 -0.010998085   -28947.999    866.14033    -12.35349   0.65593174  -0.17401032   -12.372115    105.47785    105.12476   -121.57939 
  236600       946400    9986.6245   -38986.633    279.16887 -0.056057338   -29000.009    915.93166   -11.143672   0.59455167  -0.14014021   -11.160401    105.39785    105.07938    -122.5986 
  236800       947200    9765.1073   -38836.678    272.97651  0.054113622    -29071.57    986.73064   -9.1442073   0.47179701   -0.1074604    -9.157001    105.31785    105.05662    -123.4467 
  237000       948000    9885.3728   -38919.852    276.33845  -0.10283671   -29034.479    948.41332   -12.612824   0.64273919  -0.15831286   -12.630182    105.23785    104.87739    -124.4261 
  237200       948800    9857.0852    -38734.82    275.54769 -0.0089872785   -28877.735    792.87218   -8.7294604   0.42957275  -0.10239604   -8.7406233    105.15785    104.90852   -125.17932 
  237400       949600    9722.8952   -38832.211     271.7965 -0.095835846   -29109.316    1025.2986   -9.0349026   0.44391373  -0.12488282   -9.0466634    105.07785    104.81977   -125.76865 
  237600       950400    9797.3052    -38762.72    273.87658  -0.14395647   -28965.415    878.86162   -11.529024   0.56772538  -0.15753055   -11.544069    104.99785    104.66842   -126.49825 
  237800       951200    9741.1613   -38881.021    272.30712  -0.16053615    -29139.86    1049.8132   -15.551072   0.77383364    -0.208862   -15.571714    104.91785    104.47334   -127.65199 
  238000       952000    9886.6281   -38737.715    276.37354 0.0032453327   -28851.087    758.58336   -15.745732   0.78042427    -0.212856   -15.766498    104.83785    104.38778   -128.97063 
  238200       952800    9880.1398   -38857.566    276.19216 -0.089509254   -28977.426    884.81405   -14.871559   0.73391699  -0.19185523   -14.890894    104.75785     104.3328   -130.20305 
  238400       953600    9794.0966   -38699.922    273.78689 -0.0052983003   -28905.825    811.07958   -17.821531   0.88828928  -0.23570182   -17.845212    104.67785    104.16839   -131.64336 
  238600       954400    9789.3375   -38670.648    273.65385 -0.083582218   -28881.311    788.44182    -11.61379   0.58639654  -0.16126144   -11.629702    104.59785    104.26597   -132.86995 
  238800       955200    9840.5664   -38821.618    275.08592 -0.074005355   -28981.052    883.73487   -19.817154   0.98882566  -0.28393785   -19.843841    104.51785    103.95128   -134.12543 
  239000       956000    9884.0634   -38932.304    276.30184 -0.042620947   -29048.241    950.07902   -15.356848   0.77842572  -0.21854968   -15.378117    104.43785    103.99887   -135.47138 
  239200       956800    9767.8755   -38867.094     273.0539  0.013824563   -29099.218    998.91064   -13.129735   0.65213615  -0.17922736   -13.147143    104.35785    103.98262   -136.50903 
  239400       957600    9799.9726   -38755.827    273.95115  -0.07490195   -28955.854    855.71333    -13.73874   0.68292203  -0.20499116    -13.75723    104.27785    103.88519   -137.60564 
  239600       958400    9665.6189   -38787.352    270.19539   0.06109901   -29121.733    1024.0581    -12.56236   0.62152072  -0.17523608   -12.578946    104.19785    103.83885   -138.64089 
  239800       959200    9864.4211   -38849.656    275.75276 -0.039139863   -28985.235    884.91109   -11.941317   0.59673556   -0.1537696   -11.957207    104.11785    103.77661    -139.7371 
  240000       960000     9849.089   -38707.697    275.32416 -0.026477997   -28858.608     753.5365   -17.355186   0.86207177  -0.25051567   -17.378389    104.03785    103.54172    -140.9479 
  240200       960800    9929.5977   -38909.295    277.57472 -0.0077923803   -28979.697    869.01416   -21.127747    1.0340835  -0.29394456   -21.155081    103.95785    103.35382    -142.6121 
  240400       961600    9780.0632   -38941.723    273.39459 -0.049747269    -29161.66    1049.3598    -19.16485   0.93994847  -0.26687969   -19.189742    103.87785    103.32997    -144.1474 
  240600       962400    9922.0433    -38793.43    277.36355 -0.0070199429   -28871.387    757.95528   -20.722656    1.0101716  -0.29422919   -20.749349    103.79785    103.20541   -145.71491 
  240800       963200    9918.6675   -38856.013    277.26918   0.03068421   -28937.345    823.55878   -19.550306   0.93819477  -0.27967194   -19.574802    103.71785    103.15897   -147.21665 
  241000       964000    9753.7481    -38829.32    272.65898 -0.030751895   -29075.572    961.67352   -16.992045   0.81052216  -0.21438031   -17.012716    103.63785    103.15217   -148.66094 
  241200       964800    9762.5839   -38691.207    272.90597 -0.041860739   -28928.623    818.22161   -11.563665   0.55342172  -0.14729505   -11.577838    103.55785    103.22745   -149.83272 
  241400       965600    9805.3679   -38866.158    274.10197 -0.099736918    -29060.79    947.94596   -12.243052   0.60708836  -0.14420142   -12.258942    103.47785    103.12799   -150.77374 
  241600       966400    9868.4786   -38801.129    275.86618 -0.0071865089    -28932.65    821.07716    -7.102115     0.358148 -0.078635323   -7.1115745    103.39785    103.19506   -151.48209 
  241800       967200    9869.9588   -38722.682    275.90756  -0.02629003   -28852.723    739.57423   -4.7950753   0.24883477 -0.052395021   -4.8018134    103.31785    103.18105    -151.9992 
  242000       968000    9906.0273   -38854.102    276.91583   0.14576308   -28948.074    833.08661   -3.9041507   0.20315673 -0.042186064   -3.9096604    103.23785    103.12654   -152.31428 
  242200       968800    9803.0552   -38809.412    274.03732 -0.057432395   -29006.357    890.98424 -0.090125082 0.0045386006 -0.00097518179 -0.090244558    103.15785    103.15567   -152.53752 
  242400       969600    9750.5922    -38946.98    272.57075  -0.02271261   -29196.388    1082.2271    3.1921756  -0.16660306  0.034396327    3.1967053    103.07785    103.16958   -152.41281 
  242600       970400    9784.6063   -38868.587    273.52159   -0.0488095   -29083.981     972.4032  -0.89180983  0.045985981 -0.009853847  -0.89304904    102.99785    102.97273   -152.34314 
  242800       971200    9872.7766   -38792.919    275.98633 -0.043204573   -28920.142    808.02436   -0.9636148  0.049485739 -0.011898343  -0.96495798    102.91785    102.89068   -152.47273 
  243000       972000     9754.413   -38913.355    272.67756  0.038666193   -29158.942    1045.0631   -5.7516282   0.30278034 -0.071953857   -5.7600417    102.83785    102.67368   -152.71593 
  243200       972800    9790.9988   -38820.261    273.70029 -0.0037501904   -29029.262    914.33952   -7.5573626   0.38859927 -0.089634354   -7.5678777    102.75785    102.54202   -153.34459 
  243400       973600    9971.3349    -38806.67    278.74146 -0.059057927   -28835.335    719.31405   -9.1617965   0.46761435  -0.10082224   -9.1742762    102.67785    102.41613   -153.88929 
  243600       974400    9920.7008   -38664.784    277.32602  0.011148989   -28744.083    625.58169   -13.054609    0.6890303  -0.14535169   -13.073588    102.59785    102.22472   -154.75469 
  243800       975200    9750.7186   -38790.757    272.57429 -0.041904532   -29040.038    919.22153   -9.5313042   0.50555749  -0.10616927   -9.5452931    102.51785    102.24553   -155.69136 
  244000       976000    9922.3087   -38940.952    277.37096 -0.013239232   -29018.643    896.28326   -8.8707088   0.46515424  -0.10576932   -8.8835257    102.43785    102.18443   -156.45454 
  244200       976800    9910.2562   -38905.363    277.03405  0.015801075   -28995.107     873.3892   -9.1529378   0.47959154  -0.10942065    -9.166147    102.35785    102.09636   -157.24055 
  244400       977600    9906.8163   -38879.265    276.93789  0.014421352   -28972.449    850.64637   -9.5799756   0.49722068   -0.1230705   -9.5936598    102.27785    102.00414   -157.94171 
  244600       978400    9850.1014   -38755.834    275.35246  0.014897256   -28905.733    783.36041   -11.651004   0.59158929  -0.13193824   -11.666759    102.19785    101.86491   -158.70851 
  244800       979200    9742.4666   -38643.546    272.34361  -0.13692815    -28901.08    779.78075   -10.507929    0.5226933  -0.10991263   -10.521495    102.11785    101.81764   -159.60282 
  245000       980000    9757.7131   -38844.055    272.76981 -0.087950575   -29086.342    962.97132   -5.2321171   0.25087224 -0.051610475   -5.2383824    102.03785    101.88858   -160.34249 
  245200       980800    9829.1218   -38869.636    274.76599  0.092306661   -29040.515    914.81945   -3.5556504   0.17554568  -0.03889008   -3.5601936    101.95785    101.85653   -160.60865 
  245400       981600    9724.4099   -39014.159    271.83885 0.00093958444   -29289.749    1160.0131    -8.968179   0.43976456  -0.11012512     -8.97963    101.87785    101.62169   -161.14823 
  245600       982400    9762.2371   -38923.814    272.89628 -0.0060756029   -29161.577    1031.2419   -14.854274   0.73797433  -0.18696022    -14.87377    101.79785    101.37328   -162.03502 
  245800       983200    9891.9536   -38829.411    276.52241  -0.14365442   -28937.458    809.23149   -12.623009   0.63538184  -0.15772262   -12.639974    101.71785    101.35711   -163.15716 
  246000       984000     9892.795   -38919.111    276.54593 -0.069454983   -29026.316    895.85639   -14.464739     0.719664  -0.17727613   -14.483715    101.63785    101.22443   -164.21181 
  246200       984800    9820.7722   -39068.405    274.53258 -0.098068477   -29247.632    1113.5226     -16.3893   0.82726178   -0.1748409   -16.411097    101.55785    101.08936   -165.39707 
  246400       985600    9794.6497     -39076.8    273.80235   0.10905209   -29282.151    1145.4885   -13.653468    0.6789384  -0.15043609   -13.671166    101.47785    101.08764   -166.65068 
  246600       986400    9896.8678   -38965.945    276.65978  0.077632001   -29069.077     931.0442   -12.394704    0.6159752  -0.13522782   -12.410737    101.39785    101.04366    -167.7161 
  246800       987200     9842.647   -39195.943    275.14408 -0.021389753   -29353.296    1217.0706   -14.943327   0.74393469  -0.17475101   -14.962854    101.31785    100.89074   -168.81237 
  247000       988000    9777.0895   -38799.143    273.31147 -0.049384983   -29022.053    888.88161    -8.114705   0.40567382 -0.086632164   -8.1253009    101.23785     101.0061   -169.83826 
  247200       988800    9794.0135   -38894.794    273.78457 -0.0041678138   -29100.781    966.94491   -4.4722388   0.21994182 -0.047548103   -4.4778963    101.15785    101.03031   -170.21866 
  247400       989600    9874.7358   -38896.076     276.0411  0.023238006    -29021.34    885.58757   -2.9472822   0.14963563 -0.033375689   -2.9512671    101.07785    100.99393   -170.50663 
  247600       990400    9926.6299   -38991.779    277.49176  0.095326539   -29065.149    927.58638   -1.9139169   0.09613294 -0.021978492   -1.9164557    100.99785    100.94349   -170.76571 
  247800       991200       9949.1   -38956.148     278.1199 -0.020753626   -29007.048    870.97064   -2.5674918   0.12767398 -0.029650627   -2.5708353    100.91785     100.8448   -170.95332 
  248000       992000    9895.8868   -38883.598    276.63236  -0.15860427   -28987.711    851.81811   -8.0109513     0.397437 -0.087475433    -8.021281    100.83785    100.60907   -171.27462 
  248200       992800    9793.2645    -38882.96    273.76363 0.0087410082   -29089.695    954.91089   -8.1439144   0.40134349 -0.089518208   -8.1542892    100.75785    100.52527   -171.88255 
  248400       993600    9654.0077   -38815.885    269.87081 -0.033510671   -29161.877    1026.4037   -5.4621926   0.27301617   -0.0568053   -5.4693064    100.67785    100.52198   -172.44514 
  248600       994400    9858.5777   -38935.981    275.58941 -0.084669231   -29077.403    938.54371   -7.5231205   0.37470651 -0.076797106   -7.5328377    100.59785    100.38303   -172.95017 
  248800       995200     9789.798   -38987.667    273.66672   0.12011255   -29197.869    1055.3485   -9.3224874    0.4635809  -0.10116359   -9.3345547    100.51785    100.25155   -173.67795 
  249000       996000    9851.1808   -39048.574    275.38264   0.01146947   -29197.393    1052.3066    -10.57413   0.52354336  -0.11844531   -10.587745    100.43785    100.13574   -174.59894 
  249200       996800    9673.5456   -38891.055    270.41697 -0.032182663   -29217.509    1074.9451   -6.9461911    0.3364297 -0.070767391   -6.9546937    100.35785    100.15954   -175.33162 
  249400       997600    9930.8324   -38861.167    277.60924  0.002604192   -28930.334    789.26891   -7.6060991   0.36654624 -0.079740217   -7.6153436    100.27785    100.06067    -175.8901 
  249600       998400    9833.0904   -38822.002    274.87693  -0.11012854   -28988.912    848.07649   -7.4323086   0.36482274 -0.068086352   -7.4415686    100.19785    99.985633   -176.43772 
  249800       999200     9855.883   -38904.905    275.51408 -0.099062901   -29049.022    907.81274   -4.4359901    0.2090836 -0.043319802   -4.4411261    100.11785     99.99136   -176.82713 
  250000      1000000    9881.1418   -39075.262    276.22017 -0.016693694    -29194.12    1048.4967   -3.4587979   0.16167537  -0.03467239   -3.4627481    100.03785    99.939314   -177.06877 
  250200      1000800    9769.9465   -39189.696    273.11179   0.10920925    -29419.75    1271.4936   -2.4260483   0.11337381 -0.022935149   -2.4288042    99.957849    99.888855   -177.29826 
  250400      1001600    9766.7689   -39123.266    273.02296 -0.021812436   -29356.497    1206.8776   -4.4842276   0.21636592 -0.043071973    -4.489651    99.877849    99.749974    -177.5932 
  250600      1002400    9765.9938   -39045.735    273.00129  0.052663154   -29279.741     1132.962   -4.7675346   0.23001678 -0.047017075   -4.7733117    99.797849    99.661869   -178.03979 
  250800      1003200    9876.0373   -38989.506    276.07748 -0.058360568   -29113.469     969.0757   -2.2269065   0.10482187 -0.020913586   -2.2294702    99.717849     99.65455   -178.43819 
  251000      1004000    9802.9645   -38904.632    274.03479  -0.11653636   -29101.668    957.13357   -5.1968822   0.24505869 -0.046070928   -5.2028609    99.637849    99.489596     -178.713 
  251200      1004800    9808.3747   -38910.396    274.18602  -0.02902014   -29102.021    952.57723   -5.3416505    0.2417158 -0.047794404   -5.3473303    99.557849    99.405469   -179.18008 
  251400      1005600    9893.9068   -39120.828    276.57701    0.1248047   -29226.922    1074.7526   -6.5634701   0.29008768 -0.068969592   -6.5702395    99.477849    99.290528   -179.74921 
  251600      1006400    9743.0007   -39044.181    272.35854 -0.014193219    -29301.18    1149.1016   -9.2208851   0.41060468  -0.10127271   -9.2305783    99.397849    99.134519   -180.34755 
  251800      1007200      9743.73   -39015.828    272.37893 -0.011093707   -29272.098    1124.3271   -8.3236684   0.35794668 -0.096642669   -8.3319218    99.317849    99.080195   -180.92095 
  252000      1008000    9818.4978   -38793.266    274.46901 -0.079502561   -28974.768    826.69876   -11.114467     0.470723  -0.10981614   -11.124972    99.237849    98.920393   -181.62316 
  252200      1008800    9683.8153   -38767.142    270.70405 -0.051024405   -29083.327    932.81621    -12.98861   0.55374021  -0.13737232   -13.001134    99.157849    98.786788   -182.66157 
  252400      1009600    9818.2927   -39146.867    274.46327 -0.077610932   -29328.574    1169.3517   -17.642262    0.7588386  -0.21234959   -17.659851    99.077849    98.573682   -183.89946 
  252600      1010400    9768.8221    -39153.69    273.08036   0.12511059   -29384.868    1222.7291   -14.487714   0.63737351  -0.16006952   -14.502611    98.997849    98.583889   -185.33448 
  252800      1011200    9862.9847   -39078.819     275.7126  0.061410132   -29215.834    1053.5325   -13.878613   0.59216662  -0.15999161   -13.892162    98.917849    98.521331   -186.40357 
  253000      1012000    9809.2578   -39031.057    274.21071   -0.1786743   -29221.799    1063.4408   -14.421484   0.60472549  -0.17538338   -14.435223    98.837849    98.425815   -187.48876 
  253200      1012800    9783.6372   -38743.163     273.4945  -0.19920393   -28959.526     804.5092   -12.368508   0.53329588   -0.1466717   -12.380869    98.757849     98.40451   -188.67182 
  253400      1013600    9763.8288    -38945.07    272.94077 -0.030634323   -29181.242     1025.832   -4.6110988   0.19466434 -0.055407313   -4.6155386    98.677849    98.546377   -189.49587 
  253600      1014400     10006.73   -39003.371    279.73091 -0.056825451    -28996.64     836.7661   -3.9821831   0.17728143 -0.053262225   -3.9864831    98.597849     98.48435   -189.84935 
  253800      1015200    9844.9789   -39110.744    275.20927  0.022277292   -29265.765    1103.3897   -5.0253569   0.22239288 -0.066254253   -5.0307117    98.517849    98.374515   -190.20372 
  254000      1016000    9820.5236   -39063.263    274.52564   0.11903782   -29242.739    1080.9931   -6.6549926   0.29551829 -0.082050047    -6.662056    98.437849    98.247905    -190.6537 
  254200      1016800    9869.6071   -39086.084    275.89773 -0.070206725   -29216.477    1056.1985   -2.4080398    0.1068894 -0.030120393   -2.4105992    98.357849    98.289375   -190.99686 
  254400      1017600     9880.327   -38886.689     276.1974 -0.061992686   -29006.362    848.06447   -1.8418763  0.079396046 -0.022303021   -1.8437216    98.277849    98.225572   -191.18447 
  254600      1018400    9901.1607   -38987.371    276.77979   -0.1168946    -29086.21    926.77217   -3.9677692   0.17521533 -0.046417043   -3.9719073    98.197849    98.084766   -191.63119 
  254800      1019200    9917.8987   -38975.748    277.24769  0.061131098   -29057.849    896.31309   0.66320483 -0.029210712 0.0075397459   0.66389063    98.117849    98.137218   -191.86536 
  255000      1020000    9787.1687   -38937.364    273.59322 -0.0073932943   -29150.196    987.67481    0.6172273 -0.027205833 0.0073061636   0.61786979    98.037849    98.055903   -191.73779 
  255200      1020800    9752.0874   -39051.311    272.61255 -0.0062027854   -29299.223    1135.2565   -4.8270617   0.20913401 -0.058805459   -4.8319478    97.957849    97.820194   -191.94495 
  255400      1021600    9774.7801    -39245.69    273.24691 -0.0087689666    -29470.91    1306.2226   -2.7308372     0.117964 -0.033113933   -2.7335845    97.877849    97.800147    -192.1686 
  255600      1022400     9902.524    -39102.24     276.8179  0.020502597   -29199.716    1034.1569   -1.5810688  0.068247223 -0.019524689   -1.5826615    97.797849    97.753031   -192.54417 
  255800      1023200    9765.3051   -39102.766    272.98204 -0.060620345   -29337.461    1173.1149   -4.5074825   0.19497494 -0.061594055   -4.5121179    97.717849    97.589332   -192.76596 
  256000      1024000    9935.6553   -38981.329    277.74406 -0.014796629   -29045.673    880.70533   -4.2231887    0.1844045 -0.056496879   -4.2275903    97.637849    97.517461    -193.1139 
  256200      1024800    9789.9899   -39113.738    273.67209   0.01422463   -29323.748    1157.5692   -2.9269285   0.12761528 -0.037124937   -2.9299444    97.557849    97.474537   -193.42331 
  256400      1025600    9857.8517   -39006.566    275.56912  0.044209378   -29148.715     982.7773   0.20640538 -0.0090936207 0.0025804011   0.20662171    97.477849    97.484153   -193.45193 
  256600      1026400    9869.3286   -38990.404    275.88994  0.044909538   -29121.075    954.95195   -2.8937097   0.12315834 -0.035742182   -2.8965499    97.397849    97.315491   -193.46162 
  256800      1027200    9736.2367   -39022.625    272.16946 -0.043444121   -29286.388    1120.0638  -0.23851779  0.010251017 -0.0029413893  -0.23875609    97.317849    97.311428   -193.64815 
  257000      1028000     9857.131   -39261.717    275.54897  0.039565499   -29404.586    1237.5241    4.4794498  -0.20040863  0.054420653    4.4842608    97.237849    97.366371   -193.46974 
  257200      1028800    9780.7935   -39154.262    273.41501  0.041389295   -29373.468    1206.0871    4.9968094  -0.21659792  0.057600499    5.0018334    97.157849    97.301159   -193.19931 
  257400      1029600    9840.7184   -39034.708    275.09017  -0.14121651   -29193.989    1028.5284    2.1819379 -0.095174803  0.024970488    2.1841554    97.077849    97.140654   -192.89827 
  257600      1030400    9961.6258   -39146.582    278.47005  0.060735723   -29184.956    1021.0156  -0.38679793  0.017532544 -0.0044980717   -0.3872212    96.997849    96.987186   -192.74517 
  257800      1031200    9824.7891   -39196.486    274.64487 -0.030292438   -29371.697    1206.6245    1.3628796  -0.06225066  0.015986197    1.3643942    96.917849    96.957232   -192.69638 
  258000      1032000    9807.0867   -39100.764    274.15002 0.0063276085   -29293.677    1128.3581   -1.7650538  0.079698273 -0.020800091   -1.7669746    96.837849    96.787764   -192.81637 
  258200      1032800    9873.0595   -39238.645    275.99424  0.090078838   -29365.585    1199.4815   -3.2091333   0.14350147 -0.038383213   -3.2125695    96.757849    96.666462   -193.02012 
  258400      1033600     9943.414   -39162.429    277.96095 -0.0095356039   -29219.015    1053.2544    -1.041719  0.047587431 -0.012723413    -1.042883    96.677849    96.648453   -193.05543 
  258600      1034400    9920.0256    -39070.71    277.30714  0.042397832   -29150.684    984.76775   -2.1342722  0.096892365 -0.028240879    -2.136657    96.597849    96.537202   -193.29161 
  258800      1035200    9867.8311   -39159.005    275.84808 -0.037064879   -29291.174    1124.0763   -3.8028509   0.16598394 -0.047750143   -3.8067711    96.517849    96.409485   -193.48593 
  259000      1036000    9785.4219   -39130.021    273.54439  0.067771185   -29344.599     1175.126   -4.5522967   0.20196497 -0.057221262   -4.5571339    96.437849    96.308046    -193.8736 
  259200      1036800     9744.054   -39186.954    272.38798   0.10000103   -29442.901    1271.2562   -4.0111674   0.17800092 -0.051419141   -4.0154442    96.357849    96.243522   -194.26074 
  259400      1037600    9719.6576   -39262.899      271.706 -0.054450309   -29543.241     1374.107   0.21960747 -0.0093609972 0.0027358768   0.21982392    96.277849     96.28453   -194.40414 
  259600      1038400    9808.2517   -39129.878    274.18258  -0.11729124   -29321.627    1154.1701    1.1195038 -0.047712165  0.013607527    1.1206026    96.197849    96.230267   -194.25344 
  259800      1039200    9865.1998   -39289.143    275.77453 -0.008047884   -29423.943    1255.4058   -1.5115096  0.065960577 -0.016106112   -1.5130339    96.117849     96.07502   -194.33836 
  260000      1040000    9818.5503   -39156.138    274.47047   0.12411114   -29337.588    1167.9484    0.4347913 -0.018923989 0.0046045498   0.43522729    96.037849    96.050685   -194.40136 
  260200      1040800    9816.3642   -39128.878    274.40936  0.028517207   -29312.513     1142.097    4.6893462  -0.20000354  0.058936562    4.6939794    95.957849    96.092363   -194.20084 
  260400      1041600     9798.083   -39367.542    273.89832  0.010046925   -29569.459    1401.1024      6.05765  -0.24918468  0.080535084    6.0633079    95.877849    96.051487   -193.69324 
  260600      1042400    9817.6576   -39173.444    274.44552 -0.033121968   -29355.786    1188.3586    3.5322802  -0.14456217   0.04798182    3.5355628    95.797849    95.899266    -193.3391 
  260800      1043200    9799.4503   -39168.008    273.93655  0.037187599   -29368.558    1201.6885    6.1101279  -0.25239378  0.076819212    6.1158211    95.717849    95.892987   -192.95919 
  261000      1044000    9828.5623    -38978.32    274.75035  0.079011967   -29149.757    984.80953    10.646843  -0.43561892   0.12234634    10.656453    95.637849     95.94272   -192.21936 
  261200      1044800    9822.1529     -39121.9    274.57118  0.077073405   -29299.747     1135.908    8.3262143  -0.34843812  0.096251138    8.3340577    95.557849    95.796365   -191.51396 
  261400      1045600    9965.9839    -38917.92    278.59187   0.10164872   -28951.936     788.3641    7.1990535  -0.30488828  0.087162567    7.2060339    95.477849    95.684136   -191.00094 
  261600      1046400    9926.1751    -39015.48    277.47905 0.0062278837   -29089.305    927.23261    5.6004279  -0.24078158  0.077288963    5.6061343    95.397849    95.558425   -190.39576 
  261800      1047200    9794.4324   -39102.551    273.79627  -0.11033012   -29308.118    1145.8973    9.3522522  -0.40329928   0.13146888    9.3618671    95.317849    95.585731   -189.81261 
  262000      1048000    9764.2155   -39106.742    272.95158  0.044913425   -29342.527      1180.17    7.4674252  -0.31934697   0.10222978    7.4749497    95.237849    95.451819   -189.06414 
  262200      1048800    9785.9645   -39325.492    273.55956 -0.027978542   -29539.528    1376.6953    5.6154829  -0.24318791  0.078810617    5.6212987    95.157849    95.318858    -188.6127 
  262400      1049600    9849.3823   -39209.507    275.33236  0.016168528   -29360.125    1195.9336    8.0600813  -0.34946095   0.11300804     8.068445    95.077849    95.308776   -188.08805 
  262600      1050400    9765.7765     -39114.8    272.99522   0.12814399   -29349.024    1186.9524    4.8121183  -0.21333741  0.067343871    4.8173157    94.997849    95.135887   -187.58842 
  262800      1051200    9829.7688   -38971.973    274.78408 0.0055844551   -29142.204    983.30643    1.6406063 -0.073433696   0.02189901    1.6423949    94.917849    94.965175   -187.35198 
  263000      1052000    9883.5164   -39073.954    276.28655  -0.10679518   -29190.438    1031.3065  -0.93709882  0.042010728 -0.012314798  -0.93812087    94.837849    94.811446   -187.32343 
  263200      1052800     9888.094   -39099.957    276.41452  0.080308312   -29211.863    1051.3207   -1.2051597  0.053834597 -0.016570842   -1.2064753    94.757849    94.723779   -187.36542 
  263400      1053600    9701.3413    -39133.55    271.19398  0.055593947   -29432.209    1269.8428   0.13092527 -0.0058842438 0.0017902887   0.13106966    94.677849    94.681994    -187.3502 
  263600      1054400    9788.7268   -39111.041    273.63678 -0.0057544011   -29322.314    1160.4302   -2.2574754   0.10524794 -0.031062967    -2.260141    94.597849    94.533674   -187.40892 
  263800      1055200    9800.6915   -39220.367    273.97124 -0.072921839   -29419.675    1256.3809    1.5738446  -0.07516201  0.023796735     1.575818    94.517849    94.563273   -187.60703 
  264000      1056000    9779.9477   -39057.293    273.39137  0.022950053   -29277.346     1114.458    3.4801373  -0.17157089  0.050569527    3.4847309    94.437849    94.537813    -187.3165 
  264200      1056800    9719.0321   -39206.691    271.68851  0.030994428   -29487.659    1324.0943    5.4249214  -0.26370101  0.088637753      5.43205    94.357849    94.513451   -186.99527 
  264400      1057600    9863.2862   -39107.117    275.72103  0.087991642   -29243.831    1081.3646    6.8733794  -0.33268116   0.10548398    6.8822342    94.277849    94.474885   -186.61315 
  264600      1058400    9848.1754   -39065.699    275.29862  0.039495833   -29217.523    1057.4946   0.80430698 -0.038467978  0.012563834   0.80532438    94.197849    94.221259   -186.31851 
  264800      1059200    9802.0953   -39216.959    274.01049 -0.048794001   -29414.863    1253.9815   -4.6550286    0.2172819  -0.07089344   -4.6606361    94.117849    93.985088   -186.56411 
  265000      1060000    9864.1362   -39331.216    275.74479 0.0004976727    -29467.08    1303.8434   0.86204049 -0.041098946  0.013386833   0.86312348    94.037849     94.06291   -186.63854 
  265200      1060800    9867.8996    -39251.12       275.85   0.14443608   -29383.221    1220.2589  -0.24587127  0.011550814 -0.0037648366  -0.24617124    93.957849    93.951216   -186.56098 
  265400      1061600    9810.8703   -39334.834    274.25579 -0.028651123   -29523.963    1360.9708    2.1635744  -0.10125565  0.032111446    2.1661805    93.877849     93.94014   -186.46901 
  265600      1062400    9787.2767   -39126.426    273.59624 -0.055385757   -29339.149    1176.9176     2.828192  -0.13380631  0.041953563    2.8316664    93.797849    93.879154   -186.33886 
  265800      1063200    10009.734   -39159.615    279.81488 -0.076988728   -29149.881    987.83641    5.7813885  -0.27428452  0.084623194    5.7885098    93.717849    93.883635    -185.9939 
  266000      1064000     9794.088   -39282.895    273.78665  0.066040177   -29488.807    1326.4499    5.0396569  -0.23802517   0.07375219    5.0458138    93.637849    93.782416   -185.55802 
  266200      1064800    9740.7098   -39264.938     272.2945    0.1181473   -29524.229     1360.521    6.4923835  -0.30816228  0.091980924    6.5003437    93.557849    93.743974   -185.03016 
  266400      1065600    9738.1697   -39240.981    272.22349  0.064657382   -29502.811    1340.6243    5.9715691  -0.28033669  0.088300026    5.9787978    93.477849    93.649072   -184.44793 
  266600      1066400    9876.5773   -39225.873    276.09258 -0.010458284   -29349.295    1187.0241    5.8223281  -0.27316686  0.084324326    5.8293426    93.397849    93.564802   -184.05866 
  266800      1067200    9795.6711   -39328.839     273.8309  0.052174432   -29533.167     1370.636    7.2588152   -0.3374609   0.10611106      7.26743    93.317849     93.52589   -183.59817 
  267000      1068000    9871.2307   -39215.794    275.94312   0.10050057   -29344.564    1184.3047    4.8357838  -0.21887961  0.068763439    4.8412232    93.237849     93.37657   -183.01358 
  267200      1068800    9931.2243   -39243.239    277.62019 -0.066265185   -29312.015    1151.7036    6.5671972  -0.30490024  0.087134901    6.5748487    93.157849    93.346102   -182.63484 
  267400      1069600    9842.7329   -39206.033    275.14648   0.15429194     -29363.3    1203.5897    7.0930673  -0.32317084  0.096295066    7.1010785    93.077849    93.281137   -182.14196 
  267600      1070400    9798.1482   -39166.012    273.90015  0.030945594   -29367.864    1207.1199    8.9094359  -0.40703811   0.13060625    8.9196853    92.997849    93.253098   -181.38578 
  267800      1071200    9949.5377   -39196.772    278.13213 -0.020099801   -29247.234    1087.8685    6.3466888  -0.29430822   0.10065665    6.3543062    92.917849    93.099801   -180.76962 
  268000      1072000    9809.4099   -39244.072    274.21496 -0.066871136   -29434.662    1275.5075    6.3835876  -0.29384705  0.099295245    6.3911186    92.837849    93.020853   -180.28053 
  268200      1072800    9797.9974   -39228.878    273.89593 -0.041674227   -29430.881    1272.4294    7.8115256  -0.35788361   0.13613097    7.8209044    92.757849    92.981704   -179.60183 
  268400      1073600    9727.3235   -39151.373    271.92029  0.059160364    -29424.05    1266.0228    7.2752989  -0.32689752   0.13847245    7.2839557    92.677849    92.886362   -179.02747 
  268600      1074400    9848.7659   -39194.423    275.31513   0.05249334   -29345.657    1188.5107    8.4622924  -0.36580678   0.16456919    8.4717938    92.597849    92.840301   -178.41539 
  268800      1075200    9895.6061   -39113.605    276.62451 0.0078962933   -29217.998    1063.4231    7.2359875  -0.30705318   0.13657265    7.2437869    92.517849    92.725215   -177.81184 
  269000      1076000     9868.183     -39090.5    275.85792  0.066948362   -29222.317    1069.0171    3.9689747  -0.16815618  0.076688287    3.9732754    92.437849    92.551772   -177.28566 
  269200      1076800     9812.816   -39300.165    274.31018 -0.036660132   -29487.349    1331.8548    12.064157   -0.5205525   0.24364939     12.07784    92.357849    92.703331   -176.65789 
  269400      1077600    9989.9268   -39104.746    279.26118 -0.0054463588   -29114.819    960.72553    8.7511142  -0.37138378   0.17706962    8.7607807    92.277849    92.528557   -175.85583 
  269600      1078400    9873.7656   -39131.134    276.01398   -0.0344001   -29257.368    1103.8045     11.84229  -0.49405395   0.23938299    11.855008    92.197849    92.536964   -175.03567 
  269800      1079200    9783.7547   -39200.173    273.49779 0.0049396946   -29416.418    1261.2997    15.422565  -0.65250268   0.32789514    15.439844    92.117849    92.559388   -174.13023 
  270000      1080000     9963.189   -39147.996    278.51374  0.029056099   -29184.807    1028.2374     18.26881    -0.777647   0.38411491    18.289387    92.037849    92.560803   -172.67606 
  270200      1080800     9801.446   -39263.569    273.99233 0.0027869965   -29462.123    1306.9036    18.199811  -0.78096334   0.38014462    18.220525    91.957849    92.478836   -171.16687 
  270400      1081600    9861.5853   -39181.547    275.67349   0.11940466   -29319.962    1166.9431    15.056477  -0.62988965   0.32880256    15.073234    91.877849    92.308913   -169.79154 
  270600      1082400    9853.7218   -39147.763    275.45367 -0.023963691   -29294.041    1140.7108    18.819281  -0.78313475   0.42503522    18.840363    91.797849    92.336546   -168.35455 
  270800      1083200    9660.6662   -39262.784    270.05694 -0.018269764   -29602.118    1451.5547    16.984411  -0.70948426   0.37869697     17.00344    91.717849    92.204062   -166.88025 
  271000      1084000    9872.5625   -39327.377    275.98035  0.076174708   -29454.814    1306.6266    11.226531  -0.46776244   0.26238154    11.239335    91.637849    91.959373   -165.78674 
  271200      1084800    9820.4564   -39312.243    274.52376 -0.020718915   -29491.787    1346.2961    10.338043  -0.43693667   0.25781435    10.350484    91.557849    91.853978   -164.99023 
  271400      1085600    9773.2867    -39284.03    273.20516 -0.048606894   -29510.743    1369.6619    6.8328795   -0.2871204   0.16796278    6.8409715    91.477849    91.673706   -164.28942 
  271600      1086400    9870.1906   -39096.886    275.91404  -0.18689486   -29226.695    1085.8684    5.4897367  -0.23672217   0.13630634    5.4965285    91.397849    91.555293    -163.7762 
  271800      1087200    9855.6151   -39159.855    275.50659  0.055737911    -29304.24    1160.3642    2.9301725  -0.12424518  0.068944341    2.9336157    91.317849    91.402067   -163.42688 
  272000      1088000    9971.3547   -39241.046    278.74201   0.18247709   -29269.691    1122.0821    4.2638673  -0.18307248  0.091605205    4.2687787    91.237849    91.360215   -163.18281 
  272200      1088800    9793.6972   -39353.282    273.77572   0.10504129   -29559.585    1410.6997     8.733352  -0.37337324   0.19674957    8.7435436    91.157849    91.408065     -162.679 
  272400      1089600    9871.6371   -39315.444    275.95448  0.092942199   -29443.806    1298.7002    9.9240406  -0.41838085   0.22762383    9.9354636    91.077849     91.36212   -161.81624 
  272600      1090400    9841.5489   -39209.517    275.11338 -0.092664637   -29367.968    1227.9128    8.1950434  -0.35314368   0.17895811    8.2046007    90.997849    91.232667   -160.92125 
  272800      1091200     9816.544   -39055.705    274.41439 -0.070166858   -29239.161    1101.5674    10.682965  -0.44254951   0.23604713    10.694733    90.917849    91.223813   -160.19478 
  273000      1092000    9840.3904   -39135.384      275.081 -0.005308663   -29294.993    1153.8388    14.161262  -0.58098026   0.30402881    14.176435    90.837849     91.24329   -159.08557 
  273200      1092800    9817.9429    -39219.28    274.45349   0.11950623   -29401.337    1258.8633    10.646269  -0.44523805   0.20466331    10.657541    90.757849    91.062751   -158.03568 
  273400      1093600    9830.6659   -39450.251    274.80916   0.21218409   -29619.585    1474.5323    11.720777  -0.50145979   0.21605291    11.733489    90.677849    91.013492   -157.28502 
  273600      1094400    9884.1078   -39346.626    276.30309   0.17455297   -29462.518    1319.2258    12.907954  -0.56705015   0.22005922    12.922277    90.597849    90.967457   -156.32814 
  273800      1095200    9729.1563   -39092.409    271.97153  0.013455215   -29363.253      1225.19    10.944591  -0.46107148   0.18257299     10.95582    90.517849    90.831273   -155.24586 
  274000      1096000    9792.0061    -39147.63    273.72845  0.040271711   -29355.623    1221.1346    10.963296  -0.46054881   0.16966306    10.974277    90.437849      90.7518   -154.45285 
  274200      1096800    9793.6002   -39134.688    273.77301 -0.042883369   -29341.088    1204.1192    16.865819  -0.71258361   0.26609999    16.882963    90.357849     90.84062    -153.2284 
  274400      1097600    9877.5191   -39066.078     276.1189   0.21005242   -29188.559    1051.4683    16.993142  -0.72840757   0.27057957    17.010898    90.277849    90.764275   -151.97894 
  274600      1098400    9827.3885   -39265.867    274.71754  0.081773607   -29438.479    1301.3529     19.19395  -0.80467949    0.3414522    19.213844    90.197849    90.747216   -150.56114 
  274800      1099200    9910.3717   -39205.354    277.03727  0.093034122   -29294.982     1158.342    21.125485  -0.92923699   0.36905858    21.149133    90.117849     90.72251    -148.8357 
  275000      1100000    9760.0333   -39121.976    272.83467 0.0014130651   -29361.942    1230.0169    19.054277  -0.85739735   0.34109282    19.076607    90.037849    90.583295   -147.29188 
  275200      1100800    9848.9737   -39366.626    275.32094 -0.013369023   -29517.652    1382.7457    23.845716   -1.0542429   0.46445547    23.873528    89.957849     90.64035   -145.50039 
  275400      1101600    9967.8908   -39335.872    278.64518  0.087281539   -29367.982     1232.504    24.128942   -1.0914158   0.51064436     24.15901    89.877849    90.568507   -143.66594 
  275600      1102400    9817.0519   -39258.357    274.42859   0.16678326   -29441.305    1306.7585     21.80392  -0.99386389    0.4556415    21.831315    89.797849    90.422001   -141.87897 
  275800      1103200    9909.6746   -39286.344    277.01779   0.15442226   -29376.669    1245.4801    23.714894   -1.0435046   0.49028488    23.742904    89.717849    90.396618   -140.01173 
  276000      1104000    9860.6755   -39196.195    275.64805   0.10273958    -29335.52    1208.3004    25.023857   -1.1062945    0.4982765    25.053255    89.637849    90.354057   -138.02052 
  276200      1104800    9774.5333   -39119.582    273.24001 -0.049277362   -29345.049    1225.2143     20.69923  -0.93293313   0.43744005     20.72486    89.557849    90.150388   -136.12489 
  276400      1105600    9842.9506    -39119.38    275.15257  0.048783638    -29276.43    1157.1943    16.855456  -0.77424473   0.37469885    16.877388    89.477849    89.960461   -134.64174 
  276600      1106400    9885.0584   -39426.268    276.32966   0.10761038   -29541.209    1417.0265    20.344129  -0.92093966    0.4517015    20.369972    89.397849    89.980249   -133.12925 
  276800      1107200    9788.8967   -39475.866    273.64153   0.20277137   -29686.969    1565.0855    13.932091  -0.61729992   0.30673878    13.949133    89.317849    89.716796   -131.75894 
  277000      1108000    9736.5673   -39407.025     272.1787  0.096517616   -29670.457    1551.8513    9.2828394  -0.42707565   0.21321787    9.2951042    89.237849    89.503824   -130.75241 
  277200      1108800    9857.9759   -39249.178    275.57259  0.056350977   -29391.202    1274.3331    10.640242  -0.48872676    0.2449176    10.654276    89.157849    89.462657   -129.99117 
  277400      1109600    9925.4921   -39400.389    277.45995  0.016922407   -29474.897    1359.4188    12.056101  -0.56497641   0.29091003    12.072837    89.077849    89.423188   -128.96527 
  277600      1110400     9813.756   -39230.844    274.33645  0.098873812   -29417.088    1303.4701    10.905564  -0.51836093   0.23884951    10.920489    88.997849    89.310263   -128.12778 
  277800      1111200    9759.1534   -39257.175    272.81008   0.13856944   -29498.022    1381.9201    17.675145  -0.82333922   0.38610988    17.698523    88.917849    89.423922   -126.98129 
  278000      1112000    9857.3606    -39487.17    275.55539  0.021154387   -29629.809    1514.9203    17.713089   -0.8184083   0.37269727    17.735902    88.837849     89.34499   -125.65875 
  278200      1112800    9860.9295   -39481.545    275.65515  0.050131543   -29620.616    1505.4692     21.88581   -1.0055985   0.45453975    21.913614    88.757849    89.384353   -124.04038 
  278400      1113600     9740.786   -39298.037    272.29663 0.0019379257   -29557.251    1444.8297    23.340447    -1.110175   0.50205102    23.372227    88.677849    89.346027   -122.18182 
  278600      1114400    9915.4123   -39306.588    277.17818    0.1065565   -29391.176    1279.8599    26.032321   -1.2099702   0.51525885    26.065518    88.597849    89.342979   -120.16272 
  278800      1115200    9990.3535   -39170.828    279.27311  0.013236383   -29180.474    1069.6907    26.966261   -1.2382402   0.57839953    27.000871    88.517849    89.289703   -118.04387 
  279000      1116000    9851.4719   -39251.367    275.39077   0.14762066   -29399.895    1292.3637    23.158612   -1.0527353   0.50204394    23.187963    88.437849    89.100763   -116.05808 
  279200      1116800    9912.3284   -39401.496    277.09197 -0.062326405   -29489.167    1380.8411    25.423762   -1.1966262   0.51033635    25.457023    88.357849    89.085593    -114.1371 
  279400      1117600    9820.7759   -39309.025    274.53269  0.086214519   -29488.249    1382.2023    25.607549    -1.169021   0.55915508    25.640316    88.277849     89.01083   -112.07403 
  279600      1118400    9826.2274   -39344.414    274.68508  0.030536101   -29518.186    1410.7093    27.482369   -1.2745152   0.55182827     27.51744    88.197849    88.984462   -110.03721 
  279800      1119200    9752.1452   -39328.563    272.61417 -0.032659078   -29576.418    1470.7875    29.606038   -1.3578621   0.55844635    29.642421    88.117849    88.965176   -107.75197 
  280000      1120000    9952.7792   -39246.609    278.22275    0.1115687    -29293.83     1193.903    25.962176   -1.1983512   0.52955014    25.995212    88.037849     88.78097    -105.5443 
  280200      1120800    9859.2596   -39318.512    275.60847  0.073770851   -29459.252    1362.0617    25.693454   -1.1723984   0.50804542    25.725206    87.957849    88.693255   -103.43456 
  280400      1121600    9933.7928   -39213.658      277.692 -0.047130071   -29279.865    1189.1061    22.689901   -1.0250049   0.45727974    22.717644    87.877849    88.527325   -101.48465 
  280600      1122400    9840.7546   -39255.569    275.09118  0.070924112   -29414.814    1323.1943    26.038008   -1.1833903   0.53992019    26.070478    87.797849     88.54312   -99.516463 
  280800      1123200    9881.3018   -39203.997    276.22465  0.086045758   -29322.695    1230.0201     28.07698   -1.2475537   0.54557104    28.109978    87.717849    88.521392   -97.295025 
  281000      1124000    9857.3881   -39391.261    275.55616   0.11445572   -29533.873    1442.4128     29.72987   -1.2976882   0.57080032    29.763652    87.637849     88.48864    -94.96797 
  281200      1124800    9721.5808   -39418.992    271.75976  0.021273101   -29697.412    1607.9898    29.916289   -1.2660603   0.55071728    29.948131    87.557849     88.41391   -92.545068 
  281400      1125600     9822.869   -39247.544     274.5912   0.23701065   -29424.675    1333.9223    31.809547   -1.3605875   0.62493737    31.844764    87.477849      88.3881   -90.103427 
  281600      1126400     9748.376   -39451.822     272.5088  0.070859999   -29703.446    1609.1068    35.356428   -1.4677026   0.76961205    35.395246    87.397849    88.409542   -87.440771 
  281800      1127200    9948.4916   -39319.784    278.10289  0.075469527   -29371.292    1276.1305     40.51352   -1.6655369   0.92419901    40.558272    87.317849    88.477057   -84.419343 
  282000      1128000    9844.2183   -39356.277    275.18801   0.10676185   -29512.058    1420.2782    40.898436   -1.7140415   0.96650812    40.945746    87.237849    88.408128    -81.19701 
  282200      1128800    9847.2419   -39320.255    275.27253   0.03053698   -29473.013    1385.0161    40.947673   -1.7261483   0.97153592    40.995553    87.157849    88.329551   -78.020322 
  282400      1129600    9860.5786   -39429.717    275.64534 -0.052945609   -29569.139     1488.722    36.740389   -1.5711227   0.89433793     36.78484    87.077849    88.129245   -74.880916 
  282600      1130400    9816.8072    -39319.35    274.42175   0.16066607   -29502.543    1426.0609    35.109006   -1.4808422   0.83986552    35.150257    86.997849    88.002543   -72.066676 
  282800      1131200    9833.0922   -39394.523    274.87698 0.0066192204   -29561.431    1487.9596    35.511996   -1.4967439   0.82046754    35.552992    86.917849    87.934049   -69.216595 
  283000      1132000     9828.723   -39356.503    274.75484  0.069020721    -29527.78     1457.809    34.476201   -1.4077703   0.81955285    34.514663    86.837849    87.824383   -66.348358 
  283200      1132800    9811.4789   -39280.149     274.2728  0.062474887    -29468.67    1402.7124    32.527663   -1.3626391   0.77055221     32.56531    86.757849    87.688687   -63.700009 
  283400      1133600    9938.9015   -39278.591    277.83481  0.049861194   -29339.689    1275.6808    31.327332   -1.3224926   0.71690352    31.363429    86.677849    87.574347   -61.213085 
  283600      1134400    9886.7094   -39430.688    276.37581   0.10411163   -29543.979    1482.4011    31.217043   -1.2867919    0.6704761    31.250747    86.597849    87.491128    -58.70396 
  283800      1135200    9810.3025   -39286.458    274.23991   0.10869481   -29476.156    1417.8234     31.57317   -1.3091283   0.67223882    31.607448    86.517849    87.421319   -56.307047 
  284000      1136000    9978.3318   -39232.529    278.93705  0.026211524   -29254.198    1196.9735    34.758462    -1.431109   0.70898208    34.795135    86.437849    87.432396   -53.541231 
  284200      1136800    9706.2753   -39255.816    271.33191  0.017179984   -29549.541    1497.7936    31.773213   -1.2871268    0.6792589    31.806526    86.357849    87.267007   -50.842434 
  284400      1137600     9856.216   -39341.726    275.52339  0.067600425    -29485.51    1435.5785    30.911611   -1.2783662   0.68720714    30.945665    86.277849    87.162411   -48.290063 
  284600      1138400    9808.1832   -39339.187    274.18067  0.069846216   -29531.004    1480.1584    32.868197    -1.369376   0.71191768    32.904413    86.197849    87.138376   -45.691148 
  284800      1139200    9809.3872   -39370.711    274.21433  0.097031676   -29561.324     1518.622     27.68127   -1.1345529   0.57057419    27.710386    86.117849    86.909975   -43.302976 
  285000      1140000    9816.2135   -39390.886    274.40515 -0.0039197609   -29574.672    1535.5531    27.244201   -1.1174356   0.58285271    27.273337    86.037849    86.817488   -41.092272 
  285200      1140800    9871.9487   -39247.341    275.96319  0.053121651   -29375.393    1334.5414    32.690354   -1.3634362   0.66587383     32.72555    85.957849    86.893265   -38.663825 
  285400      1141600    9784.7839   -39392.036    273.52656 -0.065193578   -29607.252    1567.7602    33.405471   -1.3892807   0.71071432      33.4419    85.877849    86.833732   -36.129821 
  285600      1142400    9773.0519    -39607.18     273.1986   0.02668438   -29834.129    1796.9038    32.104985   -1.3811169   0.67457283    32.141757    85.797849    86.716585   -33.515653 
  285800      1143200    9861.3648   -39438.113    275.66732   0.18950317   -29576.748    1537.8147    33.583895   -1.3998389   0.68075891    33.619949    85.717849    86.678819   -30.843671 
  286000      1144000    9816.3517   -39411.704    274.40901   0.11028538   -29595.352    1554.1549     38.91274   -1.5928966   0.77938431    38.953127    85.637849    86.751196   -27.874709 
  286200      1144800    9742.7107   -39405.074    272.35043   0.12136601   -29662.364    1625.1154    40.733024    -1.717692   0.79947786    40.777063    85.557849    86.723308    -24.63969 
  286400      1145600    9839.2944   -39224.217    275.05036  0.023484689   -29384.923    1352.2745    41.751791   -1.7522359   0.82326301    41.796653    85.477849     86.67244   -21.402018 
  286600      1146400    9700.4212   -39212.796    271.16826  0.030796267   -29512.375    1485.4212    41.237507   -1.7486959   0.80613188    41.282439    85.397849    86.577748   -18.012697 
  286800      1147200     9890.039   -39309.464    276.46889   0.14210495   -29419.425    1395.4198    38.516118   -1.6714457   0.74048125    38.559479    85.317849    86.419949   -14.767648 
  287000      1148000    9787.4983   -39484.962    273.60244  0.074673296   -29697.463    1674.2878    38.740398    -1.682273   0.73903673    38.783949    85.237849    86.346362   -11.663463 
  287200      1148800    9765.3234   -39285.111    272.98255  0.072761458   -29519.788    1500.3429    38.523092   -1.6732631   0.74418965    38.566595    85.157849    86.260152   -8.5636347 
  287400      1149600    9704.7301   -39436.333    271.28871  0.010164295   -29731.603    1714.4025    39.963938   -1.6987229    0.7571066    40.007189    85.077849    86.221312   -5.5800604 
  287600      1150400    9839.1824   -39217.663    275.04723  0.091048278   -29378.481    1362.9662    40.482303   -1.7303249   0.79772037    40.527118    84.997849    86.156167   -2.2518932 
  287800      1151200    9870.5868    -39388.03    275.92512  0.034391158   -29517.443    1503.6819    41.440852   -1.7748471    0.8445286    41.487438    84.917849    86.103605    1.0629096 
  288000      1152000    9865.1977   -39248.813    275.77447   0.10818252   -29383.615    1376.9753    38.213006   -1.6225007   0.80913682    38.255993    84.837849    85.931278     4.187567 
  288200      1152800    9954.7414   -39317.779     278.2776   0.18639888   -29363.038    1358.4213    38.592464   -1.6905591   0.80845971    38.637933    84.757849     85.86219    7.3078347 
  288400      1153600    9893.0683   -39422.614    276.55357  0.039872512   -29529.546    1528.9832    38.364732   -1.6384696   0.80732155     38.40819    84.677849    85.775626    10.355108 
  288600      1154400    9817.8276   -39306.696    274.45027   0.09419739   -29488.869    1493.1035     35.25596   -1.5331442   0.67630638     35.29576    84.597849      85.6067    13.335835 
  288800      1155200    9756.3662   -39438.851    272.73216   0.21282026   -29682.485    1686.4372    36.794872   -1.5952958   0.69891145     36.83607    84.517849    85.570709    16.253816 
  289000      1156000    9900.6895   -39455.735    276.76662  0.067531337   -29555.046    1565.7423    34.368316   -1.4450375   0.69816263    34.405765    84.437849    85.421271    19.024724 
  289200      1156800     9790.957   -39357.149    273.69912  0.085426774   -29566.192    1579.6829    36.251948   -1.5951718   0.71188561    36.294009    84.357849    85.395221    21.894461 
  289400      1157600    9877.5594    -39267.88    276.12003  0.034738085    -29390.32    1407.2725    37.484696   -1.6758529   0.70344921    37.528732    84.277849    85.350499    24.817654 
  289600      1158400    9851.0048   -39420.919    275.37772 -0.0099333721   -29569.915    1586.9886    39.349943    -1.820887   0.79907574    39.400155    84.197849    85.323968    27.889152 
  289800      1159200    9770.3315   -39333.777    273.12255  0.054574931   -29563.446    1584.0084    37.272526   -1.7032574   0.73843418     37.31873    84.117849    85.184499    30.967339 
  290000      1160000    9960.8039   -39417.413    278.44707    0.1410056   -29456.609    1475.1869     39.12329   -1.8524569   0.70864882    39.173532    84.037849    85.157493    33.991993 
  290200      1160800    9868.5851   -39545.818    275.86916   0.26844609   -29677.233    1697.4501    39.871409   -1.9305365   0.72854991    39.924767    83.957849    85.098957    37.119091 
  290400      1161600    9919.0095   -39487.573    277.27874   0.10385764   -29568.564    1592.2908    40.420012    -1.906177   0.74039989    40.471707    83.877849    85.034584    40.447789 
  290600      1162400    9881.4667   -39599.176    276.22926  0.012930667   -29717.709    1738.9114    46.231874   -2.1711162    0.8279577    46.290231    83.797849    85.120827    43.883264 
  290800      1163200    9666.2666   -39384.932    270.21349  0.050335058   -29718.666    1745.1548     45.66068   -2.1651643   0.85249426    45.719934    83.717849    85.024533    47.580558 
  291000      1164000    9817.4361   -39427.985    274.43933 -0.013719519   -29610.549    1639.3064    47.438818   -2.1747044   0.78157785     47.49507    83.637849    84.995251    51.185689 
  291200      1164800    9921.5116   -39413.599    277.34868   0.11298466   -29492.087    1530.8433    43.020356   -2.0049017   0.69988937    43.072735    83.557849    84.788899    54.874743 
  291400      1165600    9750.2246   -39366.678    272.56048   0.12338254   -29616.453     1657.703    42.179264   -2.0078128   0.63242542     42.23176    83.477849    84.684871    58.160726 
  291600      1166400    9729.0187    -39452.72    271.96768   0.23033356   -29723.701    1760.4163    45.614379   -2.0886464   0.68261714    45.667275    83.397849    84.703029    61.746867 
  291800      1167200    9736.6646   -39602.321    272.18142   0.12215252   -29865.657     1905.073    46.212123   -2.1554882   0.68847634    46.267488    83.317849    84.640178    65.415906 
  292000      1168000    9777.6644   -39360.212    273.32754  0.079584321   -29582.547    1622.7475    51.022565   -2.2688632    0.7021999    51.077813    83.237849    84.697616    69.219396 
  292200      1168800    9754.4859    -39287.58     272.6796 0.0099327439   -29533.094    1582.5621    49.667892   -2.2200166   0.67895674    49.722117    83.157849    84.578881    73.282772 
  292400      1169600    9789.6554   -39314.061    273.66274 0.00056722531   -29524.406    1578.9214    50.039877   -2.2013268   0.62139594    50.092127    83.077849    84.509453    77.311649 
  292600      1170400    9985.5956   -39449.004     279.1401   0.13934369   -29463.408    1522.2562    48.279516   -2.1610476   0.60651625    48.331663    82.997849    84.379154    81.256593 
  292800      1171200    9920.8641   -39431.206    277.33058   0.19113555   -29510.342    1564.4304    50.692355   -2.2246416   0.66170342     50.74546    82.917849     84.36812    85.172882 
  293000      1172000    9808.2239   -39588.771    274.18181   0.16979962   -29780.547    1840.0091    49.757115   -2.1187511   0.61967475     49.80606    82.837849     84.26128    89.232765 
  293200      1172800    9922.7116   -39539.452    277.38223  0.087060606    -29616.74    1676.5842    52.655321   -2.3060344   0.62606765    52.709511    82.757849    84.264235    93.326333 
  293400      1173600    9776.5712   -39417.273    273.29698 -0.00041924244   -29640.702     1707.769    51.035602   -2.2261516   0.66150716    51.088414    82.677849    84.137918    97.453818 
  293600      1174400    9889.4054    -39366.02    276.45118   0.12152603   -29476.614    1552.0798    48.972608   -2.0821296    0.5874858    49.020371    82.597849    83.998831    101.44759 
  293800      1175200    10012.475   -39324.717     279.8915   0.13012822   -29312.242    1384.4494    53.486621   -2.2792809   0.71575144    53.539948    82.517849    84.047962    105.45879 
  294000      1176000      9844.51   -39333.439    275.19616   0.11992907   -29488.929    1566.9781    52.219742    -2.221063    0.7641712    52.272541    82.437849    83.931751    109.73597 
  294200      1176800    9898.0901   -39402.264    276.69395  0.098560892   -29504.174    1590.8429    48.854272   -2.0384393   0.69882645    48.901774    82.357849    83.755443    113.80892 
  294400      1177600    9839.1077   -39391.705    275.04514   0.11476168   -29552.597    1637.7596    51.858155    -2.121148   0.73172676    51.906675    82.277849    83.761297    117.76096 
  294600      1178400    9784.4791   -39408.584    273.51804   0.10495093   -29624.105    1712.6073    51.702194   -2.1205504   0.77722425    51.751499    82.197849    83.676864    121.90973 
  294800      1179200    9900.3163   -39516.502    276.75618  0.089249545   -29616.185    1710.0015    51.057381   -1.9810286   0.81111443    51.102236    82.117849    83.578313    126.00051 
  295000      1180000    9759.9816   -39531.902    272.83323   0.12690953    -29771.92    1865.8639    53.647937   -2.0729466   0.84665759    53.694647    82.037849    83.572382    130.12462 
  295200      1180800    9831.1795   -39379.433    274.82351  0.086525699   -29548.253    1642.7604    56.937288   -2.1267322   0.85968862    56.983479    81.957849    83.586349    134.61189 
  295400      1181600    9798.2295   -39399.796    273.90242   0.15819635   -29601.566    1697.7432    58.603102   -2.1666944   0.82375553    58.648928    81.877849    83.553933    139.24075 
  295600      1182400    9861.2616   -39458.123    275.66444   0.11514227   -29596.861    1693.8841    60.938051   -2.2484927   0.84454236    60.985367    81.797849    83.540689    143.98432 
  295800      1183200    9779.8358   -39352.405    273.38824  0.087857701    -29572.57    1679.0936    57.867205   -2.0786927    0.7968103     57.91001    81.717849    83.372821    148.72621 
  296000      1184000    9763.6394   -39428.266    272.93548  0.040702272   -29664.626    1779.9755     55.18637   -2.0072465   0.87154614    55.229738    81.637849    83.216242    153.15143 
  296200      1184800    9735.9991   -39481.409    272.16282   0.18519745    -29745.41    1864.9249    54.081462   -2.0230068   0.87949056    54.126432    81.557849    83.104719    157.56183 
  296400      1185600    9778.1417   -39473.222    273.34088   0.12693293    -29695.08    1807.7922    60.638503   -2.2849436   0.99414718    60.689681    81.477849     83.21224    162.10262 
  296600      1186400    9865.9705   -39383.104    275.79607  0.063396218   -29517.133    1635.2123    62.120215   -2.2929233    1.0443498     62.17129    81.397849    83.174572    167.12507 
  296800      1187200    9802.8183   -39419.528     274.0307 -0.0051755861    -29616.71    1740.7733    61.388048   -2.2420244    1.1322341     61.43941    81.317849    83.073661    171.99512 
  297000      1188000    9784.9785   -39472.205      273.532  0.097837073   -29687.226    1803.8435    68.138631   -2.6376064    1.1411184    68.199209    81.237849    83.186798    177.26859 
  297200      1188800    9908.2269    -39408.45    276.97732   0.12849299   -29500.224    1627.0606     65.28496   -2.4980999    1.0315875     65.34088    81.157849    83.025132    182.61613 
  297400      1189600    9789.8456   -39405.049    273.66805   0.14424204   -29615.203    1747.6326     65.48127   -2.5834241    1.0570128    65.540736    81.077849    82.950842    187.77444 
  297600      1190400    9740.9705   -39307.274    272.30179  0.085469545   -29566.304     1709.453    62.410319   -2.4925232   0.92363875    62.466901    80.997849    82.783018    192.99991 
  297800      1191200    9774.6685   -39600.059    273.24379   0.11509058    -29825.39    1974.4817    60.965048   -2.4899421   0.91953483    61.022803    80.917849    82.661758    197.79808 
  298000      1192000    9795.3132   -39496.084     273.8209   0.13748094   -29700.771    1855.4413    60.166076   -2.4131788    0.9662421    60.222203    80.837849    82.558884    202.73496 
  298200      1192800    9903.6886   -39467.472    276.85045   0.20391268   -29563.783    1720.8845    62.411263   -2.4775252   0.98859366    62.468241    80.757849    82.543056    207.60073 
  298400      1193600    9970.3534   -39474.177    278.71402  0.052454905   -29503.824    1664.0269    63.568905   -2.4375053    1.0607819    63.624464    80.677849    82.496091    212.68239 
  298600      1194400    9776.2651   -39430.835    273.28842   0.17949792    -29654.57    1821.6743     63.28578   -2.3340805    1.0533353    63.337568    80.597849    82.407894    217.60955 
  298800      1195200     9789.998   -39396.769    273.67231  0.062001391   -29606.771    1782.7409    61.022436   -2.2663904    1.1257471    61.074885    80.517849    82.263246    222.63123 
  299000      1196000    9973.5226   -39361.786    278.80261 -0.0082779502   -29388.263    1570.0652    61.169654   -2.2819848    1.0295853    61.220863    80.437849    82.187417    227.34941 
  299200      1196800    9822.5439   -39279.146    274.58211    0.0530187   -29456.602    1642.4285    60.497436   -2.3242859   0.95759573    60.549641    80.357849    82.088239    232.44892 
  299400      1197600     9817.962   -39458.792    274.45403  0.068573475    -29640.83    1826.6011    61.823997   -2.3398599    1.0285696    61.876809    80.277849    82.046158    237.34126 
  299600      1198400    9734.1189   -39507.129    272.11026   0.34392696    -29773.01    1959.8258    63.014791   -2.3542642   0.90217233    63.065207    80.197849    82.000113    242.34596 
  299800      1199200    9846.8381   -39408.644    275.26124   0.18318759   -29561.806    1757.4282    60.429907   -2.3265407   0.79239072    60.479867    80.117849    81.846246    247.23495 
  300000      1200000    9978.5799   -39415.677    278.94399   0.18355647   -29437.097    1637.9877    61.067821   -2.4005248   0.88652623    61.121413    80.037849    81.784576    252.11748 
  300200      1200800    9893.1234   -39563.663    276.55511   0.11636127    -29670.54     1874.801    62.576184   -2.3694327   0.83752185    62.626627    79.957849    81.747582    257.13784 
  300400      1201600    9826.1152   -39360.531    274.68194  0.058492781   -29534.416    1745.3021    62.174073   -2.4531467   0.86397137    62.228448    79.877849    81.656205    262.18185 
  300600      1202400     9910.852   -39407.434     277.0507  0.084131308   -29496.582    1705.5582    66.189171   -2.5052536   0.94829972    66.243354    79.797849    81.690917    267.34446 
  300800      1203200     9846.452   -39462.972    275.25045  0.094113955    -29616.52    1827.8647    66.534792   -2.5647558    0.9409456    66.590855    79.717849    81.620845     272.6339 
  301000      1204000    9776.1836   -39703.589    273.28614  0.013076633   -29927.405    2142.6138    66.607692   -2.5847366   0.94541811    66.664528    79.637849     81.54295    277.88457 
  301200      1204800    9941.7052   -39438.913    277.91318   0.15932071   -29497.208    1714.9026    67.888371    -2.606334    0.9788672    67.945435    79.557849    81.499548    283.37247 
  301400      1205600    9823.7018   -39636.272    274.61448   0.19010115    -29812.57    2021.9199    74.365545   -2.7538908    1.0091822     74.42336    79.477849    81.604631    289.04596 
  301600      1206400    9838.6667   -39496.461    275.03281   0.16631728   -29657.795    1877.9258    72.496616   -2.6525085    1.0103523     72.55216    79.397849    81.471168     294.9525 
  301800      1207200    9951.2362   -39580.723    278.17961  0.047563161   -29629.487    1859.5174    71.286914    -2.558801    1.0114584    71.339993    79.317849    81.356535     300.7271 
  302000      1208000    9959.4242   -39507.663     278.4085  0.081199698   -29548.239    1790.6185    67.648055   -2.3455803   0.85251162    67.694075    79.237849    81.172366    306.27159 
  302200      1208800    9698.9545   -39544.734    271.12726   0.19661832    -29845.78    2083.5365    73.230007   -2.5568573   0.93157398    73.280552    79.157849     81.25198    311.86177 
  302400      1209600    9890.9671   -39560.898    276.49483   0.15438508   -29669.931    1911.1312    73.510331   -2.5428412    1.0094923    73.561226    79.077849    81.179999    317.79538 
  302600      1210400    9788.2542   -39418.125    273.62357   0.18057657   -29629.871    1881.7235    70.756125   -2.3331914   0.92292015    70.800599    78.997849    81.021124     323.5875 
  302800      1211200    9903.8406   -39352.729     276.8547   0.17944246   -29448.888    1707.7786    70.660008    -2.339334   0.91885497    70.704692    78.917849    80.938384    329.26096 
  303000      1212000    9838.6604   -39557.128    275.03264  0.058623179   -29718.468     1974.717    74.200846   -2.4278567    1.1584436    74.249593    78.837849    80.959666    335.13967 
  303200      1212800    10011.034   -39530.195    279.85123   0.15151546   -29519.161    1781.5096    73.896869   -2.4933238    1.1274921    73.947516    78.757849    80.871036    341.13592 
  303400      1213600    9925.6238   -39510.937    277.46364   0.16182976   -29585.313    1850.1658    75.264945   -2.5053198    1.0813907    75.314395    78.677849    80.830089    347.07452 
  303600      1214400    9782.5088   -39512.094    273.46296   0.13269818   -29729.586    1990.3141    80.529255   -2.7236247    1.1709074    80.583808    78.597849    80.900644     353.3353 
  303800      1215200    9933.6745   -39435.239    277.68869   0.15609726   -29501.564     1783.903    74.365971   -2.4780965    1.1104216    74.415534    78.517849    80.644408    359.49742 
  304000      1216000    9815.1744   -39437.305     274.3761 -0.0063936692   -29622.131    1905.3084    77.131195    -2.577802    1.2503098    77.184387    78.437849    80.643518      365.594 
  304200      1216800    9819.2429   -39506.127    274.48983 -0.037180253   -29686.884    1969.8384    79.306121   -2.6837375    1.2790458    79.361825    78.357849     80.62573    371.78741 
  304400      1217600    9848.8455   -39607.757    275.31735   0.19235473   -29758.911    2043.4379    80.614366   -2.7411646    1.3048278     80.67151    78.277849     80.58315    378.19002 
  304600      1218400    9881.0558   -39616.589    276.21777    0.1265082   -29735.533    2036.3537    76.075143   -2.5262363    1.2832663    76.127892    78.197849    80.373332    384.54195 
  304800      1219200    9827.7083    -39537.55    274.72648   0.12279228   -29709.842    2012.4052    77.839372    -2.620633    1.3205476    77.894668    78.117849    80.343811    390.60491 
  305000      1220000    9881.9138   -39459.789    276.24175    0.2850813   -29577.875    1887.5879    77.307152   -2.5117492    1.3287998    77.359359    78.037849    80.248517    396.83397 
  305200      1220800    9832.4314    -39474.21    274.85851   0.25291251   -29641.779    1961.7697    75.200321   -2.4235734    1.3402292      75.2513    77.957849    80.108287    402.89258 
  305400      1221600    9832.9486   -39312.787    274.87297   0.17179539   -29479.839    1799.3235    78.383812   -2.6885147    1.4438002    78.443194    77.877849    80.119484    409.03209 
  305600      1222400     9708.745   -39338.722    271.40095   0.21097339   -29629.977    1949.0809    82.284917   -2.8508521    1.6111966    82.350051    77.797849    80.151108    415.38098 
  305800      1223200    9743.6261   -39201.951    272.37602   0.11997748   -29458.325    1788.1805    81.484699   -2.9571438    1.6708289    81.555457    77.717849    80.048405    421.91881 
  306000      1224000    9800.7682   -39462.629    273.97339  0.013922641   -29661.861    2001.6273    80.381629   -2.8067916    1.4812476    80.444256    77.637849    79.936657    428.38335 
  306200      1224800     9873.899   -39449.597    276.01771   0.11204188   -29575.698    1913.2918     82.78261   -3.0326158    1.5030847    82.851775    77.557849    79.925443    434.87634 
  306400      1225600    9808.5187   -39533.257    274.19005   0.19689868   -29724.738    2069.1243    81.719471   -3.0705594    1.5142121    81.791155    77.477849     79.81514    441.46166 
  306600      1226400    9878.2186   -39459.002    276.13846   0.20486206   -29580.783    1932.8224    81.049275    -3.196085    1.3965918     81.12429    77.397849    79.716086    447.93479 
  306800      1227200    9731.4904   -39304.175    272.03678   0.24992861   -29572.685     1929.803    82.334894   -3.3608814    1.4240388    82.415765    77.317849    79.672986    454.48329 
  307000      1228000    9892.0304   -39482.483    276.52456   0.12785076   -29590.453    1952.5704    83.131514   -3.3266412    1.3145484    83.208432    77.237849    79.615633    461.22451 
  307200      1228800    9858.6366   -39473.352    275.59106   0.15625104   -29614.716    1983.6106    82.870941    -3.378964    1.3936773    82.951508    77.157849    79.528293    467.78641 
  307400      1229600    9859.7663   -39446.078    275.62264   0.13466492   -29586.312    1966.8793    80.352226   -3.2651599    1.2074277    80.427603    77.077849    79.376181    474.28244 
  307600      1230400     9842.385   -39344.673    275.13675    0.1400764   -29502.288    1877.2902    85.436328   -3.7072883    1.2460025    85.525801    76.997849    79.441844    480.84399 
  307800      1231200     9809.882   -39458.086    274.22816   0.13880461   -29648.204    2037.1139    82.512905   -3.4846106    1.2607294    82.596074    76.917849    79.278137    487.58423 
  308000      1232000    9824.6973   -39535.768    274.64231   0.10269815   -29711.071    2110.0557    81.181165   -3.4106963    1.3350179    81.263747    76.837849    79.160071    494.12027 
  308200      1232800    9808.5786   -39411.197    274.19172   0.17677477   -29602.619    1998.8514    84.951966    -3.722929    1.4282987    85.045498    76.757849    79.188121     500.8046 
  308400      1233600    9790.3651   -39511.565    273.68258   0.23793798     -29721.2     2121.847    85.456828   -3.7024711    1.4092065    85.548604    76.677849    79.122495    507.71543 
  308600      1234400    9750.0767   -39598.937    272.55634   0.22107752   -29848.861    2257.4134    84.535064   -3.6303814    1.3882272    84.624369    76.597849    79.016089    514.54611 
  308800      1235200    9719.8109   -39474.281    271.71028   0.26163091    -29754.47     2170.474    84.540271   -3.6157105    1.2605385    84.626944    76.517849    78.936162    521.21127 
  309000      1236000    9775.9301   -39536.054    273.27906    0.1309813   -29760.124    2172.6837    88.981018   -3.8006236    1.4243444    89.073537    76.437849    78.983208    528.17226 
  309200      1236800    9817.4198   -39453.577    274.43887  0.083401541   -29636.158    2069.2326    84.458938   -3.8109638    1.2572844    84.554222    76.357849    78.774084    535.06159 
  309400      1237600    10005.185   -39319.564     279.6877   0.10748857   -29314.379    1752.4282    85.101491   -3.8265694    1.1792785     85.19564    76.277849    78.712411    541.79097 
  309600      1238400    9951.2056   -39520.227    278.17876  0.087632105   -29569.021    2014.6657    84.105052   -3.8336891    1.1089461    84.199684    76.197849    78.603955    548.56805 
  309800      1239200    9828.6748   -39658.676     274.7535   0.32021122   -29830.001    2285.7466     82.18646   -3.7485178    1.1556893    82.280017    76.117849    78.469107    555.18649 
  310000      1240000    9873.5003   -39535.755    276.00656   0.08880573   -29662.255     2119.942    83.929378   -3.9102429    1.1633592    84.028471    76.037849    78.439063    561.90742 
  310200      1240800    9884.5794   -39539.024    276.31627   0.15785277   -29654.444    2107.9998    88.686991   -3.9888382    1.3179425     88.78643    75.957849    78.495005    568.78566 
  310400      1241600     9843.322   -39590.552    275.16295   0.12863731    -29747.23    2199.6845     91.16567    -4.159396    1.2680398    91.269315    75.877849    78.485944    575.97138 
  310600      1242400    9890.7721    -39517.86    276.48938  0.082499615   -29627.088    2090.1254    89.934009   -4.2392638    1.2787347    90.042948    75.797849    78.370905    583.26032 
  310800      1243200    9900.6836   -39569.502    276.76645  0.035653455   -29668.818    2135.4366    91.422701   -4.1607118    1.3224091    91.526884    75.717849    78.333303    590.50351 
  311000      1244000    9938.9797   -39541.491    277.83699   0.18721557   -29602.511    2084.8963    88.950136    -4.066216    1.0244796    89.048922    75.637849    78.182504    597.77597 
  311200      1244800    9912.2349   -39487.766    277.08936   0.21664818   -29575.531    2059.7116    90.429519    -4.018143    1.0148673    90.524435    75.557849    78.144662    604.85833 
  311400      1245600    9982.5061   -39612.493    279.05374   0.16594021   -29629.987    2126.5103     88.55039   -3.9571091   0.94128532    88.643761    75.477849    78.010928    612.06186 
  311600      1246400    9852.0969   -39533.399    275.40824   0.24072215   -29681.302    2188.9886    86.619028   -3.9008057   0.90203948     86.71151    75.397849    77.875721    619.09301 
  311800      1247200     9808.526   -39503.351    274.19025   0.12070793   -29694.825    2216.9396    83.599865   -3.5955869   0.88926828    83.681877    75.317849     77.70916    625.90883 
  312000      1248000    9858.1209   -39615.486    275.57664   0.15803028   -29757.365    2268.9261    90.410826   -3.9190801   0.76147466    90.498931    75.237849    77.823933    632.79505 
  312200      1248800    9880.6598   -39570.274     276.2067   0.17700813   -29689.615     2202.966    92.460887   -4.0588759   0.84819864     92.55382    75.157849    77.802644    640.18364 
  312400      1249600      9958.48   -39673.557    278.38211   0.13772006   -29715.077    2236.8266    92.306156   -4.1243902   0.90992671    92.402733    75.077849    77.718328    647.59005 
  312600      1250400    9826.0316   -39609.022    274.67961   0.05353108    -29782.99    2300.9186    96.957664   -4.3384795   0.93858784    97.059219    74.997849     77.77137    655.21401 
  312800      1251200    9917.5929   -39579.334    277.23914   0.17767428   -29661.741    2180.1068    99.743476   -4.3048036    1.0000011    99.841336    74.917849    77.770859    663.10493 
  313000      1252000    9824.8745   -39646.626    274.64726   0.13576645   -29821.751    2354.3807    96.610465    -4.207991    1.0876028    96.708179    74.837849     77.60134    670.99671 
  313200      1252800    9887.0378   -39735.013    276.38499   0.20929924   -29847.975     2384.416     97.59261   -4.2322039     1.024523    97.689706    74.757849    77.549384    678.74035 
  313400      1253600    9933.0072   -39462.068    277.67003   0.22982084   -29529.061    2069.9855    98.603712   -4.3545854    1.1845163    98.706927    74.677849    77.498447    686.60696 
  313600      1254400     9828.034   -39637.988    274.73558   0.29324479   -29809.954    2372.0335    93.973273   -4.1512804    1.2043287     94.07263    74.597849    77.286039    694.44595 
  313800      1255200    9896.9494   -39502.856    276.66206   0.10998718   -29605.907    2184.7613    90.763441   -4.1127507    1.2575992    90.865277    74.517849      77.1144    701.88352 
  314000      1256000    9785.9527   -39531.256    273.55923  0.059954207   -29745.303     2318.075     96.39801   -4.3699589    1.5913897    96.510131    74.437849    77.195682    709.35927 
  314200      1256800    9826.3218   -39454.543    274.68772  0.073561015   -29628.221    2210.7794    96.626475   -4.3930549    1.4662183      96.7374    74.357849    77.122175    717.16626 
  314400      1257600    9907.8588   -39477.298    276.96703   0.14550507    -29569.44    2142.2138    102.13272   -4.5962064    1.5611295    102.24801    74.277849    77.199621    725.04738 
  314600      1258400    9815.9925   -39663.945    274.39897   0.22259883   -29847.953     2423.897    102.37268   -4.6890998    1.6126907     102.4927    74.197849    77.126612    733.21942 
  314800      1259200    9816.4076   -39629.362    274.41058   0.32753786   -29812.954    2396.0008    102.49783   -4.6465417    1.6844118    102.61692    74.117849    77.050162    741.43392 
  315000      1260000     9917.707   -39631.653    277.24233   0.18127339   -29713.946    2308.5163    101.84704   -4.5478748    1.8096894    101.96459    74.037849    76.951523    749.61242 
  315200      1260800    9773.7174   -39597.959     273.2172  0.083846665   -29824.242     2423.351    103.47373   -4.6465088    1.7781485    103.59327    73.957849    76.918057    757.79618 
  315400      1261600    9829.2623   -39474.648    274.76992   0.19117647   -29645.385    2260.9092    100.74951   -4.3739295    1.8554967    100.86147    73.877849    76.760006    765.97495 
  315600      1262400    9782.0562   -39631.094    273.45031   0.20003583   -29849.038    2476.9571    98.516621   -4.2549028    1.9278966    98.627307    73.797849    76.616173    773.85931 
  315800      1263200    9982.3277   -39516.409    279.04875   0.24320766   -29534.081    2155.3951    103.28871   -4.4596486    1.9818253    103.40393    73.717849    76.672648    781.79784 
  316000      1264000    9801.2433   -39464.828    273.98667    0.1990472   -29663.584    2291.4723    104.18072   -4.4111539    1.8393671    104.29028    73.637849    76.617972    790.13087 
  316200      1264800    9883.7612   -39563.241     276.2934   0.13892282    -29679.48    2304.7655    108.42303   -4.7145958    2.0231328    108.54434    73.557849    76.659516    798.69792 
  316400      1265600    9937.3615   -39600.236    277.79176   0.16195477   -29662.875    2287.8209    110.91305   -4.7387491    2.0293107    111.03278    73.477849    76.650615     807.5742 
  316600      1266400    9818.9947   -39560.801     274.4829    0.3229566   -29741.806    2379.9788    109.03097   -4.5959498    1.8421489    109.14334    73.397849    76.516631    816.38137 
  316800      1267200    9800.9437    -39600.32    273.97829   0.15557451   -29799.376    2434.1259    112.96405   -4.8829299    1.9085795    113.08565    73.317849    76.549268    825.29639 
  317000      1268000    9866.5567   -39469.503    275.81246   0.18528986   -29602.946    2247.0057    113.28966   -5.0884603    2.0310616    113.42206    73.237849     76.47888    834.32777 
  317200      1268800    9856.9493   -39478.964    275.54389   0.20662617   -29622.015     2279.352    111.63098    -5.192557    1.9842467     111.7693    73.157849    76.351658    843.37453 
  317400      1269600    10035.671   -39553.873    280.53993   0.20658767   -29518.202    2178.2451    114.06162   -5.3752653    1.9750409    114.20529    73.077849    76.341258     852.4664 
  317600      1270400    9785.5456   -39357.484    273.54785   0.17262273   -29571.938    2242.1922    114.22927     -5.36342    2.0181788    114.37293    72.997849    76.266047    861.60289 
  317800      1271200    9721.8511   -39409.366    271.76732   0.18484519   -29687.514    2370.0309    113.02209   -5.4251389    1.8978105    113.16813    72.917849    76.151625    870.68153 
  318000      1272000    9781.1194   -39625.239    273.42412   0.22808198    -29844.12    2533.6692    113.56346   -5.6069981    1.7216466    113.71483    72.837849    76.087245    879.67995 
  318200      1272800    9860.9457   -39646.413    275.65561   0.20552358   -29785.467    2463.6904    118.82529   -6.0172328     1.954262     118.9936    72.757849    76.158067    888.84094 
  318400      1273600    9778.9538   -39493.776    273.36358   0.28347978   -29714.822    2418.5855    114.34828   -5.6156738    1.7902491    114.50008    72.677849     75.94968    898.36493 
  318600      1274400     9894.973   -39454.091    276.60681    0.1328249   -29559.118    2263.3627    117.78496   -5.9616295    1.7524639    117.94876    72.597849    75.968214    907.61448 
  318800      1275200     9850.329   -39532.648    275.35883    0.0503596   -29682.319    2378.4994    123.22975   -6.0232541    1.9435199    123.39217    72.517849     76.04374    917.32157 
  319000      1276000    9850.5456   -39338.264    275.36488   0.17686931   -29487.718    2194.3451    123.15816   -6.0840371     1.714107    123.32026    72.437849    75.961685     927.1759 
  319200      1276800    9818.5097   -39448.525    274.46934   0.30612286   -29630.015     2351.534    120.98589   -5.8649468    1.8922272    121.14274    72.357849    75.819471    936.91058 
  319400      1277600    9962.8249   -39374.924    278.50357    0.2543592   -29412.099    2163.6391    114.32414   -5.6073469    1.8241015     114.4761    72.277849    75.548995    946.28503 
  319600      1278400    9869.0181   -39493.063    275.88126    0.2937725   -29624.045    2389.6044    112.80138   -5.4789089    1.5234897    112.94464    72.197849    75.425239    955.25704 
  319800      1279200    9778.4261   -39523.648    273.34883   0.17702191   -29745.221    2523.1113    111.58728   -5.2080737    1.7113474    111.72186    72.117849    75.310303    964.37787 
  320000      1280000    9862.2557   -39733.948    275.69223   0.18025871   -29871.693    2670.8978    107.50603   -5.1712332    1.6049506     107.6423    72.037849    75.113744    973.19513 
  320200      1280800     9705.519   -39495.647    271.31076   0.12995978   -29790.128    2580.4316    113.04416    -5.242747     1.730275     113.1789    71.957849    75.191932    981.94236 
  320400      1281600    9789.9231   -39434.734    273.67022    0.1410904   -29644.811    2461.7306    107.61333   -5.0103611    1.4178448    107.73924    71.877849    74.956513    990.85766 
  320600      1282400    9846.1064   -39278.702    275.24079    0.2232993   -29432.595    2246.6908    111.80778   -5.1039923    1.6158849    111.93588    71.797849    74.996418    999.59288 
  320800      1283200    9776.3014   -39475.834    273.28944   0.24318463   -29699.533    2508.6893    115.61207   -5.2660567     1.698273     115.7444    71.717849    75.025232    1008.6354 
  321000      1284000    9844.3987   -39504.528    275.19305   0.25035703   -29660.129    2460.2056    120.45825   -5.3784688    1.7877479    120.59152    71.637849    75.083721    1018.2122 
  321200      1284800    9842.7453   -39603.819    275.14683   0.21067761   -29761.074    2580.8223    117.74218   -5.2135779    1.7713088    117.87086    71.557849    74.925988    1027.7796 
  321400      1285600      9768.28   -39590.493     273.0652   0.10785931   -29822.213    2633.8233    123.22666   -5.4749936    2.0048791    123.36452    71.477849     75.00295    1037.4915 
  321600      1286400    9825.5815   -39502.026    274.66703    0.2244311   -29676.445    2493.2041    124.36002   -5.5099786    1.7312738    124.49406    71.397849    74.955223    1047.4416 
  321800      1287200    9776.2636   -39503.656    273.28838   0.26967298   -29727.392    2548.1275    125.47434   -5.4954048    1.7074612    125.60623    71.317849    74.906999    1057.4361 
  322000      1288000    9817.9823   -39454.975     274.4546    0.2474671   -29636.993    2473.2173     124.4709   -5.6393351    1.6646129     124.6097    71.237849    74.798527    1067.4551 
  322200      1288800    9891.3794   -39469.379    276.50636    0.1523547   -29577.999    2424.0034    124.80153   -5.7704932    1.8319655    124.94829    71.157849    74.728201    1077.4069 
  322400      1289600    9856.0597   -39559.636    275.51902   0.24652207   -29703.576    2578.1142    119.45127   -5.4375033     1.972662    119.59123    71.077849    74.495142    1087.1389 
  322600      1290400    9847.5534   -39425.364    275.28124   0.22767986    -29577.81    2463.6178     118.3189   -5.4160636    2.0814966    118.46109    70.997849    74.382852    1096.5997 
  322800      1291200    9900.7315   -39550.778    276.76779   0.21164574   -29650.047    2534.1429    121.43958   -5.7839109      2.01548    121.59394    70.917849    74.392362    1106.1649 
  323000      1292000     9788.424   -39625.052    273.62832   0.23968739   -29836.628    2733.5682    120.79358   -5.5715511    2.1555309    120.94121    70.837849    74.293713    1115.8245 
  323200      1292800    9894.5868    -39593.91    276.59602   0.18854836   -29699.323    2580.3765    127.69787    -6.256963    2.4564946    127.87466    70.757849    74.411811     1125.986 
  323400      1293600    9833.8013   -39593.793     274.8968   0.28097356   -29759.992    2649.9286    128.11108   -6.1547114    2.2580097    128.27871    70.677849    74.343356    1136.2184 
  323600      1294400     9817.092   -39586.227    274.42971   0.22821091   -29769.135    2662.5398    129.41757   -6.1918721    2.2827926    129.58571    70.597849    74.300698    1146.5764 
  323800      1295200    9667.1313    -39622.78    270.23767   0.20365323   -29955.649    2846.5191    133.33918   -6.6191478    2.2709781    133.52268    70.517849    74.333183    1157.1196 
  324000      1296000    9853.7622   -39554.065     275.4548    0.2178962   -29700.303    2604.3797    133.03853   -6.5116708    2.2872418    133.21743    70.437849    74.244462    1167.7522 
  324200      1296800    9844.4112    -39511.02     275.1934   0.17610908   -29666.609    2572.6924    135.92684   -6.6041205    2.2046208    136.10504    70.357849    74.246965    1178.5151 
  324400      1297600    9914.1318   -39668.964    277.14239   0.14689578   -29754.832    2674.1729    134.85502   -6.4710696    2.2454818    135.02886    70.277849    74.136217    1189.3336 
  324600      1298400    9770.7952   -39522.052    273.13551   0.39620741   -29751.257    2667.6036     137.5822   -6.5586516    2.2698591    137.75714    70.197849    74.134168    1200.2236 
  324800      1299200     9819.486    -39436.53    274.49663   0.26189909   -29617.044    2539.3988     139.3901    -6.620951    2.4777131    139.56925    70.117849    74.105942    1211.3215 
  325000      1300000    9742.5672   -39538.203    272.34642    0.2985532   -29795.636    2726.7818    140.35263   -6.4626115    2.4209415     140.5222    70.037849    74.053169    1222.6283 
  325200      1300800    9862.1599   -39459.316    275.68955   0.25703504   -29597.156    2548.1592    138.54998   -6.2948523    2.2981582    138.71195    69.957849    73.921448    1233.8606 
  325400      1301600    9851.1443   -39537.767    275.38162   0.14862378   -29686.623    2647.4365     139.0745   -6.3572964     2.327513    139.23918    69.877849    73.856512    1245.0158 
  325600      1302400    9887.1287   -39391.155    276.38753   0.20099574   -29504.026    2487.3867    135.55199   -6.2516146    2.2360145     135.7145    69.797849    73.675807    1255.9438 
  325800      1303200     9795.643   -39554.036    273.83012   0.28180679   -29758.393    2748.2716    136.44072   -6.0903125    1.9193714    136.59007    69.717849    73.620823    1266.7657 
  326000      1304000    9841.7281   -39541.145    275.11839   0.34678339   -29699.417    2693.4052     137.6973   -6.1269166    2.2277622    137.85154    69.637849    73.576865    1277.8055 
  326200      1304800    9799.6261   -39473.944    273.94146    0.4070988   -29674.318    2667.7869    140.43083   -6.5771637    2.4954207    140.60692    69.557849     73.57559    1289.0277 
  326400      1305600    9902.0067   -39644.261    276.80344   0.31363002   -29742.254    2748.6724    140.22042   -6.2988077    2.4778839    140.38369    69.477849    73.489212    1300.2147 
  326600      1306400    9867.8403   -39589.443    275.84834   0.29713739   -29721.602     2729.465    143.13929   -6.5106656    2.7093074    143.31289    69.397849    73.492904    1311.5274 
  326800      1307200    9783.2471   -39532.254     273.4836   0.13688313   -29749.007    2769.3537    143.30833    -6.657502    2.6907792    143.48812    69.317849     73.41791    1323.0599 
  327000      1308000    9847.1889   -39427.292    275.27104   0.10360285   -29580.103    2621.5638    140.73312   -6.6656129    2.7334428     140.9174    69.237849    73.264461    1334.4866 
  327200      1308800    9902.9832    -39446.95    276.83073   0.22014745   -29543.966    2591.3851    141.83221   -6.7633209    2.7790116    142.02057    69.157849     73.21598    1345.8796 
  327400      1309600    9726.1594   -39570.653    271.88775   0.24203838   -29844.494    2898.5105    142.17993   -6.7017284    2.8444767     142.3662    69.077849    73.145855    1357.1703 
  327600      1310400    9825.5417   -39685.754    274.66591     0.291755   -29860.212     2900.904    148.14371   -6.8762776    2.9691201    148.33293    68.997849    73.236333    1368.8199 
  327800      1311200    9869.0144   -39520.001    275.88116   0.27181103   -29650.987    2715.2682    145.51386     -6.78986    3.1286801    145.70578    68.917849    73.081272    1380.6227 
  328000      1312000    9788.6709   -39467.191    273.63522   0.19571726    -29678.52    2755.7617    145.44209   -6.6208863    3.0633538    145.62493    68.837849    72.998962    1392.2693 
  328200      1312800    9764.7027    -39454.73     272.9652   0.25285915   -29690.027    2752.3535    151.43902   -6.8005361    2.9696496    151.62072    68.757849     73.09027    1404.0577 
  328400      1313600    9790.7338   -39517.981    273.69288   0.22872139   -29727.248    2797.7489      152.103   -6.5985815    2.9985347    152.27559    68.677849    73.028981    1416.2264 
  328600      1314400    9891.3756   -39567.055    276.50625   0.25840205    -29675.68     2750.012    153.95778   -6.5630937    2.9461669    154.12577    68.597849    73.001843    1428.5919 
  328800      1315200    9846.2135   -39531.488    275.24378   0.22887077   -29685.274    2790.8426    149.95883   -6.3582955    2.6247775    150.11651    68.517849    72.807293    1440.6258 
  329000      1316000    9676.3309   -39427.547    270.49483   0.19630303   -29751.216    2859.1383    152.72661   -6.5106556    2.6018746    152.88746    68.437849    72.806463     1452.851 
  329200      1316800    9842.8249   -39492.134    275.14905   0.21330482   -29649.309    2777.7809    150.98115   -6.3721214    1.9922811    151.12869    68.357849    72.676212    1465.0657 
  329400      1317600     9957.972   -39504.746    278.36791    0.2944346   -29546.774    2682.4734    151.01704   -6.4109065    1.8808242    151.16476    68.277849    72.597242    1477.0885 
  329600      1318400     9824.569   -39587.126    274.63872   0.35449793   -29762.557    2891.8026    154.99868   -6.4707298    1.9870116    155.14641    68.197849    72.631004     1489.331 
  329800      1319200    9855.9225   -39518.336    275.51519   0.27498848   -29662.414    2800.2229    156.19199   -6.5475868    1.9979207    156.34194    68.117849    72.585162    1501.6348 
  330000      1320000    9897.2904    -39503.17     276.6716   0.20255534   -29605.879    2737.9523    160.52627   -6.8631186    2.1136479    160.68682    68.037849    72.629301    1514.3972 
  330200      1320800    9953.8741   -39469.073    278.25335   0.26018137   -29515.199    2665.0566    159.62781   -6.8973469    1.9171645    159.78826    67.957849    72.523628    1527.1227 
  330400      1321600    9870.6892    -39460.57    275.92798   0.30482907   -29589.881    2751.5094    159.58223   -6.7363096    2.0802337    159.73789    67.877849    72.442189     1539.903 
  330600      1322400    9838.9479   -39412.622    275.04067   0.25786654   -29573.674    2758.1922    157.42936   -6.9140277    2.0088816    157.59391    67.797849    72.300933    1552.5801 
  330800      1323200    9878.3177   -39551.631    276.14123   0.21511335   -29673.313    2875.4035    156.16779   -6.7344198    2.0523392    156.32639    67.717849    72.184718    1565.1262 
  331000      1324000    9831.9695    -39454.54     274.8456   0.26852555    -29622.57    2847.3894    153.55125   -6.5769114    2.2596921    153.70865    67.637849    72.029925    1577.6921 
  331200      1324800    9809.9722   -39433.898    274.23068   0.29937416   -29623.926     2849.698    156.18888   -6.4066037    2.2254295    156.33606    67.557849    72.024994    1590.2125 
  331400      1325600    9896.7702   -39443.175    276.65705   0.37677867   -29546.405    2778.7816    157.35023   -6.4843885    2.2713574    157.50016    67.477849    71.978254    1602.7572 
  331600      1326400    9976.0235    -39481.96    278.87252   0.28353881   -29505.936    2745.8572    158.80823   -6.6199813    2.3474082    158.96348    67.397849    71.940063    1615.3116 
  331800      1327200     9830.369     -39434.5    274.80086   0.26874398   -29604.131    2839.8484    162.41164    -7.090996    2.1807614      162.581    67.317849    71.963421    1628.0852 
  332000      1328000    9840.8948   -39604.625     275.0951   0.15566575    -29763.73    3016.6918    161.54795   -7.1669843    2.2776171    161.72289    67.237849    71.858904    1640.9779 
  332200      1328800    9795.7751   -39580.553    273.83381   0.35288137   -29784.777    3022.2864    167.55032   -7.4684657    2.1030996    167.72987    67.157849    71.950532    1654.1961 
  332400      1329600     9884.504   -39578.095    276.31416   0.17700417   -29693.591    2940.0687     168.0704     -7.74989    2.4031564    168.26614    67.077849    71.885854    1667.6348 
  332600      1330400    9889.0709   -39621.125    276.44183   0.17835783   -29732.054    3010.1831    164.66345   -7.5006473    2.3801354    164.85138    66.997849    71.708289    1681.0024 
  332800      1331200    9840.2257   -39490.227    275.07639   0.26269313   -29650.001    2926.4315    168.18805   -7.6963229    2.2968802    168.37972    66.917849    71.729099    1694.2398 
  333000      1332000    9867.7741    -39497.49    275.84649   0.30579386   -29629.716    2932.6547    165.06592    -7.580205    2.7285825    165.26241    66.837849    71.560032    1707.6421 
  333200      1332800    9766.6471   -39438.702    273.01956   0.31999351   -29672.055    2985.4754      165.397   -7.4057017    2.6426036     165.5838    66.757849    71.489215    1720.8249 
  333400      1333600     9799.796   -39564.562    273.94621   0.22064754   -29764.766    3082.6709    167.34986   -7.4015211    2.6924544    167.53509    66.677849    71.464966    1734.1735 
  333600      1334400    9818.4485   -39535.023    274.46763   0.28153535   -29716.575     3045.673     167.6779   -7.7543157    2.9320424    167.88271    66.597849    71.394898    1747.5933 
  333800      1335200    9866.5041   -39592.622    275.81099   0.31379471   -29726.118    3045.1455    172.17225   -7.8958627    2.9388359    172.37826    66.517849    71.443343     1761.203 
  334000      1336000    9785.7329   -39514.003    273.55309   0.29561674    -29728.27     3077.278    169.05102   -7.8380474    2.9680514    169.25866    66.437849    71.274211    1774.8577 
  334200      1336800     9883.499   -39430.426    276.28607    0.3022296   -29546.926    2893.3227    172.25335    -8.380428     2.812885    172.48002    66.357849     71.28625    1788.4816 
  334400      1337600    9738.2964   -39427.482    272.22703   0.19639313   -29689.185    3061.5389    170.13455   -8.4721886    2.6676719    170.36625    66.277849    71.145857    1802.1991 
  334600      1338400    9902.9138   -39411.103    276.82879   0.24388891   -29508.189    2877.6858    173.54753   -8.5538115    2.7139429     173.7794    66.197849    71.163375    1815.9603 
  334800      1339200    9862.7252   -39510.806    275.70535   0.23221623   -29648.081    3048.8405    169.79415    -8.431611    2.4231234    170.02063    66.117849    70.975982    1829.6927 
  335000      1340000    9900.7732   -39596.289    276.76895   0.26306291   -29695.516    3085.7511    174.29005   -8.4056453    2.6732314     174.5131    66.037849    71.024338    1843.5867 
  335200      1340800    9845.7468   -39668.215    275.23073   0.18799358   -29822.468    3218.1646    175.87855   -8.3394535    2.5922949    176.09523    65.957849    70.989542     1857.515 
  335400      1341600      9873.59   -39743.961    276.00907   0.27884686   -29870.371    3287.8101    174.21285   -8.3371734    2.5626991    174.43106    65.877849    70.861994    1871.5361 
  335600      1342400    9747.9971   -39488.496    272.49821   0.31417146   -29740.499    3169.5626    175.21869   -8.4365505    2.5235988    175.43983    65.797849    70.810816    1885.4975 
  335800      1343200     9788.421    -39483.88    273.62823   0.17695977   -29695.459    3114.6519    180.22123   -8.6489872    2.6376908    180.44792    65.717849    70.873904    1899.8139 
  336000      1344000    9850.9849   -39456.486    275.37716   0.35845617   -29605.501    3043.4133    179.47471   -8.3571312    2.8014824    179.69102    65.637849    70.772278    1914.3552 
  336200      1344800    9867.4759   -39465.652    275.83815   0.36966305   -29598.176    3047.9613    179.54303   -8.5752123    2.9582657    179.77204    65.557849    70.694593    1928.7251 
  336400      1345600    9727.1416   -39393.867    271.91521   0.31070765   -29666.725     3150.216    175.51823   -8.1439098     2.861483    175.73036    65.477849    70.499117    1942.9738 
  336600      1346400    9939.0846   -39386.049    277.83992   0.36958413   -29446.965    2934.1738    177.46727   -7.9481316      2.70659    177.66578    65.397849    70.474415    1957.0627 
  336800      1347200    9782.4703   -39541.378    273.46188   0.36174786   -29758.908    3248.4383    179.72873   -8.3373004    2.8782919    179.94502    65.317849    70.459536    1971.2705 
  337000      1348000    9917.1363   -39302.766    277.22637   0.34365553   -29385.629     2868.555    184.03241   -8.6411459    2.7812958    184.25616    65.237849    70.502711    1985.8253 
  337200      1348800    9922.8346   -39391.322    277.38567   0.22562559   -29468.487    2965.0762    184.50309   -8.5997764    2.8379827    184.72521    65.157849    70.436112    2000.5519 
  337400      1349600    9875.9345   -39340.085    276.07461   0.27710446    -29464.15    2966.6339    186.08403   -8.6722374    2.5681761    186.30371    65.077849    70.401213    2015.2746 
  337600      1350400    9801.7831   -39325.015    274.00176   0.35676006   -29523.231     3024.269    189.13733   -8.6731375    2.4850468     189.3524    64.997849    70.408318    2030.3361 
  337800      1351200    9759.8278   -39490.295    272.82893   0.25408909   -29730.467    3228.3588    192.50578    -8.836124    2.7886229    192.72864    64.917849    70.424782     2045.609 
  338000      1352000    9797.1976   -39516.183    273.87358   0.28069117   -29718.986    3254.1545    188.53531   -8.8313341    2.6901735    188.76121    64.837849    70.231427    2060.8822 
  338200      1352800    9921.6215   -39567.671    277.35176   0.29127279   -29646.049    3190.5314    189.30058   -8.8601072    2.2125487    189.52073    64.757849    70.173128    2075.8928 
  338400      1353600    9947.7509   -39543.835    278.08218    0.3292003   -29596.085    3141.9912     191.5994   -9.1171189    1.9945379    191.82656    64.677849    70.159008    2091.1917 
  338600      1354400    9821.5801   -39675.178    274.55517   0.36808953   -29853.598    3424.0133    189.73797   -9.2013359    2.0824076    189.97236    64.597849    70.026031    2106.4581 
  338800      1355200    9769.0457   -39296.808    273.08661   0.35675215   -29527.762    3122.8696     188.0739   -9.4409495     2.308468    188.32486    64.517849     69.89896    2121.6126 
  339000      1356000     9881.602    -39406.88    276.23304   0.31999859   -29525.278    3113.4807    192.32459   -9.6812582    1.9484683    192.57796    64.437849    69.940477    2136.8808 
  339200      1356800     9742.561   -39523.656    272.34625   0.21599685   -29781.095    3392.3846    190.77343   -9.7731625     1.678328    191.03097    64.357849    69.816277    2152.1721 
  339400      1357600     9747.824   -39442.583    272.49337   0.39068502   -29694.759     3302.999    193.91759   -9.7867248    1.5271662    194.17039    64.277849    69.825975     2167.529 
  339600      1358400    9817.9585   -39598.959    274.45393   0.38605493       -29781    3406.4288    193.41182   -9.7788352    1.5145614    193.66479    64.197849    69.731529    2182.9217 
  339800      1359200    9852.3747   -39424.426    275.41601    0.3535783   -29572.051    3207.4903    194.68893   -9.7857757    1.8862097    194.94383    64.117849    69.688073    2198.5501 
  340000      1360000    9894.1694   -39370.978    276.58435   0.18041682   -29476.809    3124.9625    195.55241   -10.030839    1.9855977    195.81958    64.037849    69.633095    2214.0718 
  340200      1360800    9807.6712   -39233.537    274.16636   0.28268135   -29425.866    3068.0412    199.34666   -10.116862    1.9972868     199.6132    63.957849    69.661484    2229.8805 
  340400      1361600    9977.4176   -39376.513    278.91149   0.29402458   -29399.095    3040.5904    202.18258   -9.9514491    2.2588526    202.43994    63.877849    69.662248    2245.9748 
  340600      1362400    9839.4937   -39442.997    275.05593   0.25995855   -29603.503    3274.9689    199.96404   -9.7704881    2.6830121    200.22058    63.797849    69.518837    2262.0936 
  340800      1363200     9768.936   -39286.236    273.08354   0.30486978     -29517.3    3198.3453    201.00087   -9.4748218     2.559808    201.24034    63.717849    69.467973    2278.1812 
  341000      1364000    9673.8376   -39430.502    270.42513   0.30960217   -29756.665    3435.9081    203.87883   -9.7432323    2.6241301    204.12838    63.637849    69.470489    2294.5206 
  341200      1364800    9745.7543   -39325.262    272.43551    0.3855423   -29579.508     3283.247    202.62935   -9.7021843    2.6989236    202.87945    63.557849    69.354805    2310.8154 
  341400      1365600    9971.7396   -39349.314    278.75277   0.27970685   -29377.574    3094.9204    203.26055   -9.9313346    2.1793523     203.5147    63.477849    69.292955    2327.0937 
  341600      1366400    9828.1619   -39249.134    274.73916   0.26712227   -29420.972    3163.0109    202.03248   -9.9239744    1.9845419    202.28581    63.397849    69.177844    2343.3577 
  341800      1367200    9837.2456    -39205.75    274.99309   0.30604647   -29368.504    3154.0059    196.86972   -9.9113782    1.9346944    197.12855    63.317849    68.950494    2359.2519 
  342000      1368000    9887.4539   -39483.437    276.39662   0.33487793   -29595.983    3353.6637    204.03973    -10.40328    1.8924478    204.31353    63.237849    69.075779    2375.2786 
  342200      1368800    9759.7812   -39476.169    272.82762   0.35765036   -29716.388    3480.6875    205.68466   -10.395592     1.786136    205.95494    63.157849    69.042676    2391.6184 
  342400      1369600    9982.5695   -39454.874    279.05551   0.35077167   -29472.305    3218.0218    211.50421   -10.653658    1.5490175    211.77802    63.077849     69.12905    2408.4175 
  342600      1370400    9751.8314   -39523.096     272.6054   0.31559612   -29771.265    3517.4618    214.19119   -10.850818    1.7254078     214.4728    62.997849    69.126044    2425.5669 
  342800      1371200    9798.2307   -39424.833    273.90245   0.27366645   -29626.603    3406.3534    211.65047    -10.25641    1.4665161    211.90391    62.917849    68.972647    2442.7408 
  343000      1372000    9729.7706   -39350.365     271.9887   0.18025135   -29620.595    3419.3364     211.8301   -10.300024    1.2318954    212.08394    62.837849    68.897791    2459.6996 
  343200      1372800    9846.6875    -39432.64    275.25703   0.28201281   -29585.952    3405.1532    211.21403   -10.185461    1.4426142     211.4644    62.757849    68.800089    2476.6042 
  343400      1373600    9926.2951   -39391.354     277.4824   0.43341961   -29465.059    3278.2449     214.3685   -10.311611    1.8639274    214.62445    62.677849    68.810377    2493.6543 
  343600      1374400    9761.0776   -39389.152    272.86387   0.41803374   -29628.074    3469.1272     212.1351   -10.263455    1.7081057     212.3901    62.597849    68.666538    2510.6594 
  343800      1375200    9877.9355   -39280.485    276.13054   0.35495533   -29402.549    3254.2715    213.38847   -9.9973902    1.8074708    213.63018    62.517849    68.621969    2527.6562 
  344000      1376000    9732.0716   -39289.457    272.05302   0.39185048   -29557.385    3397.8295    218.42736   -10.198025    2.1291516    218.67566    62.437849    68.686125     2544.958 
  344200      1376800    9873.3723   -39329.946    276.00298   0.30081023   -29456.573    3305.3137    220.05618   -10.317048     1.851245    220.30568    62.357849    68.652697    2562.5604 
  344400      1377600    10009.439   -39146.789    279.80664   0.39496939   -29137.349    3005.3334    220.03385   -10.303381    1.6986367     220.2815    62.277849    68.572007    2580.2272 
  344600      1378400     9934.196   -39328.774    277.70327   0.30952428   -29394.578    3293.7935    217.64907   -10.271668    2.0105506    217.90059    62.197849    68.423981    2597.7608 
  344800      1379200    9710.3519   -39264.542    271.44587    0.3402533    -29554.19    3457.7771    219.70294   -10.394394    1.6998114    219.95525    62.117849    68.402685    2615.3042 
  345000      1380000    9847.3235   -39305.565    275.27481   0.37120858   -29458.242    3350.5073    223.83856   -10.668331    1.5415874    224.09795    62.037849    68.441048    2632.9503 
  345200      1380800    9891.8029   -39393.783     276.5182   0.36364525    -29501.98    3404.4475    225.08046   -11.142843    1.7103321     225.3626    61.957849    68.397181    2650.8676 
  345400      1381600    9821.6269   -39243.451    274.55648   0.45927233   -29421.824    3371.5609    220.60785     -10.3879    1.4885182     220.8573    61.877849    68.188458    2668.7374 
  345600      1382400     9876.946   -39413.217    276.10288   0.24912537   -29536.271    3495.5089    222.00798   -10.193773    1.5809384    222.24751    61.797849    68.148178    2686.4641 
  345800      1383200    9837.9329   -39233.927     275.0123   0.40189434   -29395.994    3351.1282    225.39936   -10.362675    1.5274078    225.64261    61.717849    68.165181    2704.3726 
  346000      1384000      9743.09   -39374.371    272.36104    0.4237226   -29631.281    3584.6355    228.28587    -10.42597    1.5545994    228.52911    61.637849    68.167653    2722.5433 
  346200      1384800    9848.5658   -39335.979    275.30954   0.31646808   -29487.413    3464.7746    227.52388   -10.202775     2.040638    227.76167    61.557849    68.065726    2740.7978 
  346400      1385600    9804.2316    -39353.75     274.0702   0.33362935   -29549.518    3530.6412    229.67705   -10.060702    2.0089856    229.90607    61.477849    68.046994    2759.0811 
  346600      1386400    9736.8055   -39385.456    272.18536   0.26341824   -29648.651    3641.3142    230.54865   -10.464582    2.1809412    230.79633    61.397849     67.99243    2777.5607 
  346800      1387200    9713.4934   -39309.935    271.53368    0.3791203   -29596.441    3589.7268    233.27735   -10.719881     2.258428    233.53445    61.317849    67.990662    2796.2521 
  347000      1388000    9739.6257   -39291.662    272.26419   0.33228456   -29552.036    3558.5626    234.48204   -11.259661    2.5536745    234.76612    61.237849    67.945853    2814.9538 
  347200      1388800    9870.3967   -39309.374     275.9198   0.30952006   -29438.977    3488.9436    230.72891   -10.746758    2.1584617    230.98914    61.157849    67.757939    2833.5705 
  347400      1389600    9868.3799   -39314.638    275.86343   0.37484906   -29446.258    3496.3473    233.06433   -10.797156    2.0511531    233.32331    61.077849     67.74463    2852.1434 
  347600      1390400    9781.8736   -39271.926     273.4452   0.46987883   -29490.052    3551.7107    233.77927   -10.823741    1.6745241    234.03569    60.997849    67.684984    2870.8381 
  347800      1391200     9796.645   -39385.337    273.85813    0.4146537   -29588.692    3655.9675    235.91205   -11.127151    1.8158135     236.1813    60.917849    67.666287    2889.6347 
  348000      1392000    9825.8808   -39404.784    274.67539    0.3478726   -29578.903    3689.0637    232.60834   -10.788971    1.8177335    232.86551    60.837849     67.49155     2908.454 
  348200      1392800    9762.6084   -39320.038    272.90666   0.28431597    -29557.43    3665.2047    236.01338   -10.825283    1.9166951    236.26929    60.757849    67.508801    2927.1357 
  348400      1393600    9835.8551   -39119.774    274.95422     0.345318   -29283.919    3414.6952    235.51789   -11.080796    1.3264987    235.78214    60.677849    67.414882     2946.047 
  348600      1394400    10024.403   -39025.227    280.22493    0.4648015   -29000.824     3152.309    234.97198   -11.372222    1.8836999    235.25455    60.597849    67.319808    2964.8588 
  348800      1395200    9907.5177   -39131.123    276.95749   0.41867359   -29223.605    3371.9954    237.87702   -11.773039    1.6287872    238.17375    60.517849    67.323214    2983.7459 
  349000      1396000    9908.0834   -39232.746    276.97331   0.40340794   -29324.662    3493.2934    237.74871    -11.96769    1.3773867    238.05372    60.437849    67.239784    3002.8225 
  349200      1396800    9782.8907   -39232.123    273.47363   0.32273825   -29449.232    3650.1121    236.22473   -12.186124    1.5965666    236.54423    60.357849    67.116656    3021.8038 
  349400      1397600    9895.6763   -38844.787    276.62648   0.38599181   -28949.111    3160.0093    237.79424   -12.386121    1.8392239    238.12371    60.277849    67.081784    3040.6717 
  349600      1398400    9879.9082   -38952.214    276.18569   0.33110535   -29072.306    3296.9588    238.59719   -12.308414     1.764472    238.92097    60.197849    67.024563    3059.7953 
  349800      1399200    9899.7654   -39184.798    276.74078   0.30589255   -29285.033    3492.9338    243.52045   -12.610998    1.6678555    243.85247    60.117849    67.085463    3079.1009 
  350000      1400000    9963.0077   -39161.994    278.50868   0.36216626   -29198.986    3430.2935    242.72228   -12.493463    2.1349027    243.05298    60.037849     66.98262    3098.5936 
  350200      1400800    9828.1113   -39080.348    274.73775   0.51670454   -29252.237     3516.089    240.69136   -12.059288    2.1460082    241.00283    59.957849    66.844044    3117.9678 
  350400      1401600    9951.4289   -39036.348      278.185   0.45595021   -29084.919    3366.4092    241.13851   -11.954668    2.0261705    241.44316    59.877849    66.776625    3137.3514 
  350600      1402400    9836.6295   -39054.895    274.97587   0.23908156   -29218.265    3511.6278     242.5747   -12.062288    2.2563276     242.8849    59.797849    66.737818    3156.6902 
  350800      1403200    9795.9827   -38868.143    273.83961   0.37844871    -29072.16    3377.6859    243.64538   -11.787069    1.5373028    243.93517    59.717849    66.687826    3176.0682 
  351000      1404000    9865.3335   -39242.315    275.77826   0.33729837   -29376.981    3689.8328    244.99009   -12.103588    1.2536211    245.29209    59.637849    66.646595    3195.6662 
  351200      1404800      9909.85   -39036.811    277.02269   0.39598447   -29126.961    3482.7153    241.12892   -12.641601    1.0130691     241.4622    59.557849    66.457169    3215.0444 
  351400      1405600    9769.5153   -38949.028    273.09974   0.43756224   -29179.513    3556.9761    240.86964   -12.477665   0.82044027    241.19401    59.477849    66.369507    3234.3971 
  351600      1406400    9886.8427   -38945.914    276.37954   0.33576107   -29059.071    3436.1292    243.91298   -12.739606   0.90570678    244.24713    59.397849    66.376739    3253.6528 
  351800      1407200    9850.2866   -39011.744    275.35764   0.27165351   -29161.458    3540.6524    246.48431   -12.825654    1.0588279    246.82004    59.317849    66.370251    3273.3261 
  352000      1408000    9911.6392   -39166.105    277.07271   0.19474752   -29254.466    3654.9213    246.31617    -13.23881   0.79681837    246.67297    59.237849    66.286049    3293.0469 
  352200      1408800    9934.0649   -39156.591     277.6996   0.36311187   -29222.526    3640.5668    246.57299   -13.159084   0.83919452     246.9253    59.157849    66.213258    3312.7941 
  352400      1409600    9791.9139   -39047.897    273.72587   0.40533608   -29255.984     3696.252    246.12813   -13.232662   0.83521001    246.48501    59.077849    66.120678    3332.4574 
  352600      1410400    9619.0132   -39067.015    268.89256   0.42324747   -29448.002    3916.0739    244.63213   -12.764585   0.83087763    244.96633    58.997849    65.997287    3352.1009 
  352800      1411200     9909.651   -39136.581    277.01713   0.38812217    -29226.93    3725.7173    243.01483   -12.392216    1.0890708    243.33303    58.917849    65.870622    3371.5686 
  353000      1412000    9932.8708    -39187.31    277.66622   0.39846799   -29254.439    3758.3121    245.19775   -12.631291    1.3803163    245.52677    58.837849      65.8533    3391.1183 
  353200      1412800    9709.2229   -38981.768    271.41431   0.27078572   -29272.545    3808.9522    243.51121   -12.325798     1.150663    243.82567    58.757849    65.724697    3410.5914 
  353400      1413600    9823.2651   -39056.135    274.60227   0.29819951    -29232.87    3787.0653     244.0033   -12.841482    1.1435873    244.34365    58.677849    65.659497    3430.1894 
  353600      1414400    9820.6709   -39040.798    274.52975   0.20694934   -29220.127    3801.8523    242.68766   -12.818458    1.4567801    243.03032    58.597849    65.541973    3449.7295 
  353800      1415200    9894.8223   -39100.741     276.6026   0.43049458   -29205.919    3808.8086    241.97149   -12.389363    1.4826369      242.293    58.517849    65.440907    3469.0721 
  354000      1416000    9781.1869   -39010.341    273.42601   0.39741402   -29229.154    3824.7285    245.67493   -12.245372     1.503907    245.98452    58.437849    65.466379    3488.6796 
  354200      1416800    9829.5175   -39135.958    274.77705   0.38223231   -29306.441    3882.2178     251.2466   -12.959595    1.7873717    251.58696    58.357849    65.546448    3508.5645 
  354400      1417600    9822.8449   -39031.999    274.59052   0.32156805   -29209.154     3833.729    247.33929   -12.281271    1.7187962    247.64997    58.277849    65.353963     3528.508 
  354600      1418400    9730.2203    -39038.83    272.00127   0.34954191    -29308.61    3964.3221    245.69061   -12.574034    1.9430384    246.01983    58.197849    65.227388     3548.245 
  354800      1419200    9643.9172   -39016.077    269.58873   0.23073883    -29372.16    4026.5515    248.84319   -12.459563    1.4156469    249.15894    58.117849    65.237076    3568.1199 
  355000      1420000    9715.9825   -38963.531    271.60326   0.38478777   -29247.548     3909.458    250.68422   -12.806212   0.88763007    251.01268    58.037849     65.21004    3588.0213 
  355200      1420800    9920.6861   -38978.983    277.32561   0.31424275   -29058.297    3738.7165    250.70528   -13.122764    0.8662984    251.04999    57.957849    65.131106    3608.0574 
  355400      1421600    9792.0602   -39097.275    273.72996   0.42262416   -29305.215    3960.9668    256.72732   -13.360387   0.84634445    257.07612    57.877849    65.223281    3628.3398 
  355600      1422400    9805.1062   -39090.531    274.09465   0.32523347   -29285.425     3972.237    255.22455   -13.554916   0.31064038    255.58443    57.797849    65.100662    3648.8084 
  355800      1423200    9950.6551   -39062.366    278.16337   0.40650561   -29111.711    3797.0318     258.2162   -13.391748   0.63029241      258.564    57.717849    65.105792    3669.3438 
  356000      1424000    9826.0667   -39175.974    274.68059   0.25061542   -29349.908     4066.304    256.96193   -13.078792   0.64226896    257.29536    57.637849    64.989545    3689.9899 
  356200      1424800    9902.9507   -39065.824    276.82983   0.32993069   -29162.873    3903.9986     256.6052   -12.408315   0.67976231    256.90593    57.557849    64.898419    3710.6873 
  356400      1425600    9863.6419    -39164.41    275.73098   0.36076126   -29300.768    4065.6335    256.03628   -12.143969   0.64908821    256.32494    57.477849    64.801819    3731.2332 
  356600      1426400    9809.3801   -39041.633    274.21413   0.35422366   -29232.253     3998.651    258.51054     -12.1024   0.68179465    258.79457    57.397849     64.79238    3751.9866 
  356800      1427200    10060.537   -38954.648    281.23505   0.42932693   -28894.111     3687.804    257.50726   -11.389373   0.87404535    257.76049    57.317849    64.682835    3772.5619 
  357000      1428000    9766.6141   -39075.601    273.01863   0.41349142   -29308.987    4093.9925    261.57053   -11.347499   0.81410815    261.81782    57.237849    64.718759    3793.2916 
  357200      1428800    9871.4406    -39007.34    275.94898   0.36063434   -29135.899    3911.0521    265.95795   -11.605077   0.66468121    266.21186    57.157849    64.764302    3814.3323 
  357400      1429600     9943.402    -39023.72    277.96061   0.26262958   -29080.318    3858.7655    268.31057   -11.969602   0.94696277    268.57909    57.077849    64.751938    3835.7878 
  357600      1430400    9839.5029   -38905.195    275.05619   0.34782098   -29065.692    3892.9364    264.30125   -12.104206   0.94195406    264.57995    56.997849    64.557677    3857.1711 
  357800      1431200    9876.3517   -39060.474    276.08627   0.55642636   -29184.122    4007.8145    267.30313   -12.385603    1.0617468    267.59202    56.917849    64.563736    3878.3692 
  358000      1432000    9839.4243   -38876.568    275.05399   0.42700613   -29037.144    3882.1551    267.54014   -12.287647    1.3665162    267.82565    56.837849    64.490411     3899.936 
  358200      1432800    9765.5974   -39018.311    272.99021   0.34632527   -29252.714    4103.5497    269.94908   -12.586126     1.444509    270.24618    56.757849    64.479569    3921.4803 
  358400      1433600    9871.4511   -38871.705    275.94928   0.23562855   -29000.254    3888.6307    267.83877   -12.336275    1.5040216    268.12693    56.677849    64.339019    3943.1017 
  358600      1434400     9933.814   -38846.612    277.69259   0.47288995   -28912.798    3858.4265    262.83073    -12.16606    1.0989164    263.11445    56.597849    64.115805    3964.3295 
  358800      1435200    9781.6221   -38892.184    273.43817   0.45539215   -29110.562    4039.2798    267.70541   -12.360919   0.93126176    267.99225    56.517849    64.175171    3985.4979 
  359000      1436000    9828.2686    -38898.02    274.74214   0.52944209   -29069.751     4024.248    267.22827   -12.555992    1.1971729    267.52577    56.437849    64.081843    4007.0279 
  359200      1436800     9874.782   -38809.632    276.04239   0.39213188    -28934.85    3906.1178    267.92075   -12.403315    1.1461097    268.21015    56.357849    64.021397    4028.4004 
  359400      1437600    9794.0023   -38895.673    273.78425   0.27474977    -29101.67    4060.5116     272.2735   -12.934208   0.54597599    272.58109    56.277849    64.066281    4050.0034 
  359600      1438400    9825.3939   -38865.993    274.66178   0.44481521   -29040.599    3986.2078    276.64631   -12.269939    1.0133103    276.92013    56.197849    64.110253    4071.9853 
  359800      1439200    9831.2413    -38898.91    274.82524   0.43443231   -29067.669    4017.9494    279.08966   -12.417762     1.069455    279.36783    56.117849    64.100187    4094.2723 
  360000      1440000    9773.7448   -38939.257    273.21797   0.27410464   -29165.512    4108.3039    282.84905   -12.536624   0.93275636    283.12828    56.037849    64.127629    4116.8266 
  360200      1440800    9780.8815   -38958.474    273.41747   0.35907568   -29177.593    4147.3375    282.08881   -12.068903    1.0488397    282.34881    55.957849    64.025358    4139.5223 
  360400      1441600    9862.8769   -38913.692    275.70959   0.47982679   -29050.815    4039.8251    282.21361   -11.913201     1.160657    282.46733    55.877849    63.948745    4162.2036 
  360600      1442400    9663.4891   -39138.032    270.13585   0.47432542   -29474.543    4483.5084    282.40339   -11.902427    1.2594755    282.65691    55.797849    63.874161    4184.7545 
  360800      1443200    9856.6519   -39042.856    275.53558   0.40034461   -29186.204    4203.8281     284.1567   -12.561389    0.6682533    284.43499    55.717849    63.844964    4207.3028 
  361000      1444000    9900.1084   -38940.926    276.75037   0.32655312   -29040.818    4078.1743    284.75533   -13.075215   0.63037984    285.05605    55.637849    63.782708    4230.1437 
  361200      1444800     9935.806   -38801.795    277.74827    0.4096828   -28865.989    3910.2941    286.94099   -13.147983    0.4026648    287.24234    55.557849    63.765173    4252.8407 
  361400      1445600    9860.0127   -38884.274    275.62953   0.37083775   -29024.261    4083.9068    287.92285   -14.020618   0.42291543    288.26433    55.477849    63.714373    4275.9375 
  361600      1446400    9902.0635   -38787.467    276.80502    0.3700973   -28885.403    3943.3963    290.80806   -13.902201   0.57979168    291.14075    55.397849    63.716556    4299.1329 
  361800      1447200    9822.9129   -38847.211    274.59243   0.43332434   -29024.298    4108.3851    290.17089    -14.03487   0.46973005    290.51049    55.317849    63.618549    4322.4264 
  362000      1448000    9660.1457   -38765.463    270.04239   0.46129145   -29105.317    4194.7884    292.32282   -13.586946   0.33095758     292.6386    55.237849    63.599352    4345.8619 
  362200      1448800    9721.4469   -38814.485    271.75602   0.37847547   -29093.038    4178.7217    295.66773   -14.188072   0.61560474    296.00859    55.157849    63.615638     4369.527 
  362400      1449600    9924.7108   -38962.395    277.43811   0.34732259   -29037.684    4142.5357    296.37335   -14.377116   0.42984064    296.72218    55.077849    63.556026    4393.1069 
  362600      1450400    9780.2338   -38889.719    273.39936   0.30329125   -29109.485    4221.5238    298.42504   -13.630674   0.11040482    298.73619    54.997849    63.533569    4417.0903 
  362800      1451200    9802.0669    -38838.23    274.00969    0.4432701   -29036.163    4154.8194    300.31659   -14.337553   0.44742841    300.65898    54.917849    63.508506    4441.0461 
  363000      1452000    9772.0146    -38882.69     273.1696   0.43458131   -29110.676    4291.0497    295.76133   -13.747814 0.0044578492    296.08067    54.837849    63.297697     4464.779 
  363200      1452800    9813.9413   -38957.437    274.34163   0.53993928   -29143.496    4361.6642    293.75353   -13.741482  0.097334218    294.07478    54.757849    63.160386    4488.4276 
  363400      1453600    9936.3328   -38776.933      277.763   0.51132533     -28840.6    4067.7753    295.55116   -13.973645  -0.38460698    295.88156    54.677849    63.132008    4512.0118 
  363600      1454400    9830.3055    -38794.51    274.79908   0.45853467   -28964.205    4165.4103    301.51212   -14.274794  -0.65626685    301.85056    54.597849    63.222551    4535.9855 
  363800      1455200    9899.2971   -38821.657    276.72769   0.47568864    -28922.36    4158.6992    300.17751   -13.802895  -0.33720256    300.49488    54.517849    63.103817    4560.1268 
  364000      1456000    9864.6964   -38774.822    275.76045   0.48536339   -28910.125    4149.6667     302.3716   -14.308139  -0.29970559    302.71009    54.437849    63.087109    4584.2242 
  364200      1456800    9855.7869   -39039.828     275.5114   0.40331364   -29184.041     4417.932     305.7756   -15.129196  -0.36825795    306.14988    54.357849    63.105389    4608.6108 
  364400      1457600    9772.7809   -38955.844    273.19102   0.40317848   -29183.063    4450.7862    304.77467   -15.023898  0.098113257    305.14476    54.277849    62.996671    4633.0645 
  364600      1458400    9787.3899   -38752.546    273.59941   0.53226775   -28965.156    4245.1144    306.22085   -15.523115 -0.090354872    306.61406    54.197849    62.958651    4657.5033 
  364800      1459200    9648.0828   -38867.927    269.70518   0.37062314   -29219.845    4513.7254    307.44814   -15.380456   0.40810177    307.83289    54.117849    62.913475    4682.1249 
  365000      1460000    9934.3988   -38797.808    277.70893   0.41310519   -28863.409    4171.0877    308.96566   -15.527843    0.4715824    309.35597    54.037849    62.876991    4706.8336 
  365200      1460800    9875.5776   -38676.983    276.06463   0.40212061   -28801.405    4140.6679    308.14491   -14.625647   0.80203108    308.49285    53.957849    62.772331    4731.4938 
  365400      1461600      9837.61    -38849.57    275.00328   0.60206604   -29011.959    4310.1664    315.20927   -15.179017   0.48606191    315.57491    53.877849    62.894675    4756.3683 
  365600      1462400    9712.7262   -38811.313    271.51224    0.5154292   -29098.587    4414.3468     315.9452   -15.673399   0.41429193    316.33399    53.797849    62.836363    4781.6165 
  365800      1463200    9788.7353    -38735.44    273.63702   0.57534553   -28946.705    4271.3468    317.70192   -15.302617   0.30611824    318.07039    53.717849    62.805975    4807.0449 
  366000      1464000    9710.0115   -38676.519    271.43635   0.51288772   -28966.507      4324.45    316.98951   -15.715546  0.073905033    317.37885    53.637849    62.706217    4832.4106 
  366200      1464800    9850.6143   -38676.489     275.3668   0.39555467   -28825.875    4184.5092    320.06072   -15.036165   0.32993148    320.41388    53.557849    62.712932    4857.8864 
  366400      1465600    9840.0613   -38695.426     275.0718    0.4272437   -28855.364    4234.4412    320.54216    -15.26883   0.53019599    320.90605    53.477849    62.646994    4883.5858 
  366600      1466400      9727.65   -38666.252    271.92942   0.45975634   -28938.602    4329.6311    321.88677   -14.885914   0.59873083    322.23134    53.397849    62.604859    4909.3255 
  366800      1467200    9891.8635   -38805.772    276.51989   0.47826144   -28913.908     4341.893    320.45507   -14.587861   0.62975673    320.78755    53.317849    62.483608    4934.9754 
  367000      1468000    9833.4732    -38777.44    274.88763   0.57949294   -28943.966    4358.7008    324.69533   -14.669562    1.4452289    325.02976    53.237849    62.524814    4960.9483 
  367200      1468800    9836.9792   -38771.033    274.98564   0.52519426   -28934.054    4406.0367    321.42807   -14.399631    1.0977251    321.75233    53.157849    62.351173    4986.7299 
  367400      1469600    9880.1996   -38735.793    276.19384   0.32669012   -28855.594    4325.6918    324.60124   -15.094868    1.6168257    324.95605    53.077849    62.362708    5012.5543 
  367600      1470400    9964.2878   -38617.251    278.54446   0.38165418   -28652.963     4135.957    326.09131   -14.861958      1.22407     326.4321    52.997849    62.324881    5038.7222 
  367800      1471200    9856.0901   -38574.476    275.51987   0.53171359   -28718.386    4230.6375    325.47514   -15.274124    1.6918675    325.83774    52.917849    62.227899    5064.7564 
  368000      1472000    9899.2581   -38726.504     276.7266   0.60903951   -28827.246    4334.5683    328.61875   -15.341764    1.5858738     328.9805    52.837849    62.237692    5090.9732 
  368200      1472800    9907.5272   -38715.062    276.95776   0.50881471   -28807.535    4367.0837    326.03634    -15.55158    1.5708426     326.4108    52.757849    62.084272     5117.083 
  368400      1473600    9826.1934   -38651.212    274.68413   0.42690862   -28825.019    4396.0742    327.57002   -15.774211    1.1515625    327.95163    52.677849    62.048296    5143.2472 
  368600      1474400    9694.8573   -38697.744    271.01272   0.47199214   -29002.887    4631.3805    324.22766   -14.908908    1.3208399    324.57294    52.597849    61.871762    5169.3498 
  368800      1475200    9853.2153   -38657.081    275.43951   0.47851613   -28803.866    4428.1572    327.29257   -15.455513   0.95402011    327.65868    52.517849    61.879926    5195.3753 
  369000      1476000    9774.5398   -38726.897    273.24019   0.47469856   -28952.357    4583.0403    329.30029   -15.413538    1.7400137    329.66542    52.437849    61.857261    5221.7083 
  369200      1476800    9799.7533   -38673.842    273.94502    0.5073062   -28874.089    4503.8028    332.13668   -14.756348     1.309418     332.4669    52.357849    61.857304    5248.1461 
  369400      1477600    9713.9064   -38734.728    271.54523   0.41915471   -29020.821    4669.1062    333.11132   -14.696811   0.49281276    333.43573    52.277849    61.804985    5274.8209 
  369600      1478400    9940.9894   -38674.175    277.89317   0.52238514   -28733.185    4341.3208    340.42773   -15.426213    1.1389016    340.77896    52.197849    61.934791    5301.8769 
  369800      1479200    9728.5383   -38665.493    271.95425    0.4150652   -28936.955    4541.3972     343.6191   -15.376466   0.89242286    343.96412    52.117849    61.945796    5329.3074 
  370000      1480000    9838.8596   -38637.834    275.03821   0.50715835   -28798.974    4417.2042    345.01303   -15.142339   0.59917365    345.34568    52.037849    61.905269    5356.8748 
  370200      1480800    9992.2276   -38748.417     279.3255   0.37830895   -28756.189    4408.4019    344.14175   -15.439152   0.61822411    344.48845    51.957849    61.800777    5384.4609 
  370400      1481600    9782.9342   -38697.592    273.47485    0.5473118   -28914.657    4593.2756    344.12742   -15.104984 -0.027640249    344.45876    51.877849    61.719928      5412.03 
  370600      1482400    9679.2307   -38622.216    270.57589   0.58908609   -28942.986    4672.0291     341.7756   -15.222773  -0.78817107    342.11535    51.797849    61.572974    5439.5793 
  370800      1483200     9919.597   -38523.087    277.29516   0.50910573    -28603.49    4301.7952    347.82009   -15.864761   0.40991691    348.18195    51.717849    61.666305    5467.2346 
  371000      1484000    9729.7879   -38591.184    271.98919   0.49398442   -28861.396    4582.3384     348.5119   -15.574377  -0.03653613    348.85972    51.637849     61.60567    5495.1324 
  371200      1484800    9900.5668    -38551.23    276.76319   0.37003537   -28650.664     4368.087    351.79311    -15.58678   -0.4511395    352.13853    51.557849     61.61935    5523.1507 
  371400      1485600    9804.7718   -38609.152    274.08531   0.47865872    -28804.38    4541.5192    352.51892   -16.524306  -0.45452704    352.90629    51.477849    61.561286    5551.4064 
  371600      1486400    9851.5873   -38564.887      275.394   0.58737772     -28713.3     4458.626    354.12744    -15.70719  -0.75516845    354.47641    51.397849    61.526147    5579.5521 
  371800      1487200    9883.3117   -38723.434    276.28083    0.5826397   -28840.123    4585.7938    356.76623   -16.007495  -0.29212531    357.12528    51.317849    61.521829    5608.1171 
  372000      1488000    9935.3054   -38518.615    277.73428   0.51559683   -28583.309    4333.8647    359.20463   -15.427228  -0.95524786    359.53704    51.237849    61.510736     5636.781 
  372200      1488800    9936.9457   -38560.538    277.78013   0.51945832   -28623.592    4405.3376    359.12286   -15.663495  -0.89415689     359.4654    51.157849     61.42869    5665.5998 
  372400      1489600    9837.9599   -38494.664    275.01305   0.44357667   -28656.704    4478.7868    358.10367   -16.238171   -1.0415289    358.47316    51.077849     61.32034    5694.2566 
  372600      1490400    9954.3439   -38357.041    278.26649   0.46732533   -28402.697      4246.53    358.79868   -16.166268   -0.4801275    359.16302    50.997849     61.26005    5723.0012 
  372800      1491200    9850.7607   -38508.186    275.37089   0.53814093   -28657.425    4537.7519     357.8223   -16.371711   -1.5550183    358.20001    50.917849    61.152536     5751.743 
  373000      1492000    9743.1104   -38639.227    272.36161   0.48265058   -28896.117    4782.6637    359.95126   -15.912744   -1.0537782    360.30437    50.837849     61.13266    5780.5886 
  373200      1492800    9806.0148   -38552.501    274.12005   0.47073374   -28746.486    4681.0164    357.91951   -16.064337   -1.4665833    358.28284    50.757849    60.994902    5809.3541 
  373400      1493600     9805.588   -38535.412    274.10812    0.5082447   -28729.824    4656.0453    361.51037     -16.1277   -1.5577675    361.87329    50.677849    61.017486    5838.2268 
  373600      1494400    9773.7092    -38348.01    273.21697    0.6259704     -28574.3    4518.4753    362.67545   -16.262635   -1.6372775    363.04357    50.597849    60.970923    5867.2536 
  373800      1495200    9805.2634   -38351.719    274.09905   0.48502319   -28546.456    4473.6058    367.28459   -15.997464   -1.5051821     367.6359    50.517849    61.022132    5896.4814 
  374000      1496000    9743.6573   -38427.948    272.37689    0.4701639    -28684.29    4633.6977    368.11055   -15.881636   -1.3353683     368.4554    50.437849    60.965547    5925.9966 
  374200      1496800    9767.9607   -38267.798    273.05628   0.48866561   -28499.837    4457.0135    370.17421   -16.179411  -0.67723691    370.52824    50.357849    60.944771    5955.4329 
  374400      1497600    9741.9539   -38254.241    272.32928   0.47720647   -28512.287    4488.0373    371.28968   -15.129521  -0.41055618    371.59803    50.277849    60.895336    5985.1202 
  374600      1498400     10069.06   -38453.565    281.47329   0.56233109   -28384.505     4382.741    371.80694   -16.040617   0.17589826    372.15283    50.197849    60.831188    6014.8944 
  374800      1499200    9740.2998   -38393.067    272.28304    0.5441552   -28652.767    4644.4899    375.05888   -16.805594   0.47716287     375.4355    50.117849    60.844978      6044.77 
  375000      1500000    9776.5025   -38375.107    273.29506   0.58751905   -28598.604    4632.4877    373.98787   -16.500467   0.33541062    374.35185    50.037849    60.734016    6074.8313 
  375200      1500800    9857.1399   -38306.112    275.54922    0.3794612   -28448.973    4498.3968     375.5663   -16.643475    0.3804519     375.9351    49.957849    60.699252    6104.8558 
  375400      1501600    9784.4467   -37997.942    273.51713    0.4966421   -28213.496    4308.2954    374.18146   -17.053328   0.38411759    374.57005    49.877849    60.580251    6134.8637 
  375600      1502400    9755.7529   -38244.433    272.71502   0.42659207    -28488.68    4603.7607    374.84322   -18.345645   0.21923056    375.29196    49.797849    60.520877    6164.8665 
  375800      1503200    9879.9615    -38456.18    276.18718   0.57294068   -28576.219    4672.2888    379.28158   -17.714476   0.29362107    379.69514    49.717849    60.566682    6195.0155 
  376000      1504000    9830.4775    -38559.19    274.80389   0.54728817   -28728.712    4822.9667    382.10202   -17.863869  0.096821785    382.51938    49.637849    60.567375    6225.4679 
  376200      1504800    9799.0236    -38427.93    273.92462   0.55914332   -28628.906    4690.2929    387.88939   -18.278379   0.29794469    388.31993    49.557849    60.653105    6256.4173 
  376400      1505600    9900.6369   -38377.583    276.76514   0.54975516   -28476.946    4594.6925    385.70784   -17.131929   0.17213468    386.08816    49.477849     60.50934    6287.3495 
  376600      1506400    9895.4901   -38371.688    276.62127   0.42023424   -28476.198    4610.2385    387.15429   -16.878916 -0.025818187    387.52205    49.397849    60.470308    6318.3983 
  376800      1507200    9916.2372   -38326.155    277.20124   0.49871378   -28409.918    4572.8882    387.36502   -16.843565   0.56371558    387.73146    49.317849    60.396291    6349.3329 
  377000      1508000    9820.7846   -38394.169    274.53293   0.55734881   -28573.384    4743.4513    389.43374   -16.423347   0.28259432       389.78    49.237849    60.374821    6380.4216 
  377200      1508800    9784.2898   -38311.972    273.51275   0.53807538   -28527.682    4713.2961     390.9667   -16.177278   0.42359479    391.30147    49.157849    60.338292    6411.7333 
  377400      1509600    9784.3947   -38124.412    273.51568   0.47754448   -28340.017    4561.0274    390.69982   -15.706461   0.69871673    391.01603    49.077849    60.250136    6442.8886 
  377600      1510400    9765.6214   -38301.621    272.99088   0.53683518       -28536    4778.9318    391.38443   -15.687383   0.31851007    391.69883    48.997849    60.189645    6474.1375 
  377800      1511200    9900.8845   -38319.887    276.77207    0.5359507   -28419.002    4641.8642    395.79156   -16.188325 -0.0010313639    396.12248    48.917849    60.236035    6505.6551 
  378000      1512000    9822.0395   -38307.001    274.56801   0.50231333   -28484.961    4734.2188    396.17534   -16.305091  -0.48093887    396.51101    48.837849    60.167136    6537.3783 
  378200      1512800     9785.021   -38246.173    273.53319   0.54553727   -28461.152    4716.1231    398.59273   -15.832033  -0.74496489    398.90773    48.757849    60.155613    6569.1289 
  378400      1513600    9790.1932   -38236.835    273.67777   0.50302648   -28446.642    4755.1382    396.70799    -16.35675 -0.0065694553    397.04505    48.677849    60.022394    6600.9316 
  378600      1514400    9803.1073    -38338.28    274.03877   0.51914552   -28535.173    4849.4785    399.04792   -15.706011   -0.4697879    399.35716    48.597849    60.008454    6632.8398 
  378800      1515200    9817.3419   -38139.543    274.43669   0.54369314   -28322.201    4659.8157    399.81709   -16.777584   0.32149533    400.16909    48.517849    59.951652    6664.8803 
  379000      1516000    9857.2942    -37997.93    275.55353   0.62671837   -28140.636    4501.3316    400.54325   -17.144897  -0.81632765    400.91085    48.437849    59.892845    6696.9107 
  379200      1516800    9801.7068   -37982.545    273.99963   0.47163846   -28180.839     4599.043    398.40016   -17.350961  -0.14363327    398.77784    48.357849    59.751902    6728.9411 
  379400      1517600     9850.692   -38058.714    275.36897   0.58916315   -28208.022     4636.314    400.28259   -18.533274  -0.92349274    400.71247    48.277849    59.727177    6760.7904 
  379600      1518400     9923.634   -38125.906    277.40801   0.53022485   -28202.272    4656.3591    400.60949   -19.133975  -0.96433669    401.06733    48.197849    59.657316     6792.836 
  379800      1519200    9885.6649   -38066.817    276.34661   0.62515139   -28181.152    4654.9987    401.46755   -19.593375   -1.3950042     401.9478    48.117849    59.602472     6824.955 
  380000      1520000    9782.3913   -38031.205    273.45967   0.65296712   -28248.814    4739.8786    402.75555   -19.988921   -1.8916853    403.25571    48.037849    59.559841    6857.0987 
  380200      1520800    9811.7048   -38263.282    274.27911   0.54567515   -28451.577    4949.2253    405.13755   -19.419822   -2.3153421    405.60933    47.957849    59.547087    6889.4108 
  380400      1521600    9883.4389   -37985.942    276.28439   0.47895725   -28102.503    4584.8087    409.46688   -18.231966   -2.8825404    409.88271    47.877849    59.589184    6921.9431 
  380600      1522400    9753.1606   -38039.721    272.64255   0.43187268   -28286.561    4856.6524    404.76213   -18.264527   -2.2647703    405.18034    47.797849     59.37483    6954.6115 
  380800      1523200    9841.0576   -38088.292    275.09965   0.65635592   -28247.234    4851.8124    404.34075   -17.030381   -1.7494276    404.70302    47.717849    59.281193    6987.0181 
  381000      1524000    9780.5429   -37941.629      273.408   0.69317436   -28161.087    4801.2517    404.05964   -16.362707   -1.1611401    404.39248    47.637849     59.19232    7019.3582 
  381200      1524800    9871.0168   -37986.498    275.93714   0.54414132   -28115.481    4756.2697    406.87888   -16.655319   -1.4307641    407.22214    47.557849    59.193168    7051.9025 
  381400      1525600    9914.0577   -37983.806    277.14031   0.50962055   -28069.748    4703.1996    410.45704   -16.065672   -1.3087927    410.77342    47.477849    59.214633    7084.6643 
  381600      1526400    9764.4726   -38126.014    272.95877   0.47156064   -28361.541    4974.0265    415.10906   -15.667975    -2.141418    415.41016    47.397849    59.267111    7117.7502 
  381800      1527200    9728.4151   -37992.256    271.95081   0.62782533   -28263.841    4891.1736    416.49722   -15.574584   -1.5113767    416.79106    47.317849    59.226565     7151.087 
  382000      1528000    10020.022   -38081.276    280.10246   0.62721929   -28061.255    4719.8512    416.62497   -17.338953    -1.281183    416.98758    47.237849     59.15218    7184.3562 
  382200      1528800    9913.1748   -38115.974    277.11563   0.65832971     -28202.8    4850.8058    420.30278   -17.670885   -1.5886338    420.67708    47.157849    59.177595    7217.8559 
  382400      1529600     9944.664   -37889.323    277.99589   0.58344289   -27944.659    4660.7527    417.40976   -18.156287   -2.0213376    417.80934    47.077849    59.015659    7251.3799 
  382600      1530400    9923.9086   -37933.799    277.41569   0.54493112   -28009.891    4781.2302    415.68449   -17.891682   -2.0044049    416.07418    46.997849    58.886083    7284.7159 
  382800      1531200    9907.3736   -37852.982    276.95346   0.58027685   -27945.608    4727.5619    417.63892   -18.446446   -2.1389029    418.05156    46.917849     58.86258    7318.0348 
  383000      1532000    9864.0927    -37799.13    275.74358   0.57225884   -27935.038    4698.5783    421.98379   -18.099576   -2.4963133    422.37915    46.837849    58.906225    7351.6092 
  383200      1532800    9824.7493   -37964.138    274.64376   0.49978504   -28139.389     4934.411    422.27807   -17.833847   -2.9848869    422.66503    46.757849    58.834393     7385.425 
  383400      1533600    9879.3277   -37890.823    276.16946   0.41517933   -28011.495    4786.0494     426.9497   -18.238501   -2.5481624    427.34668    46.677849    58.888154    7419.4227 
  383600      1534400    9725.6248   -37851.026    271.87281   0.53464652   -28125.401    4840.4406    434.39163   -18.097079   -2.5805796     434.7761    46.597849    59.020424    7453.8973 
  383800      1535200    9954.7454    -38085.08    278.27771    0.5847665   -28130.335    4899.6902    432.54961    -17.61916   -2.0511502    432.91316    46.517849    58.887197    7488.6136 
  384000      1536000    9763.4025   -38026.371    272.92886   0.63228486   -28262.968    5135.4958    426.86323   -17.863362   -1.5665978    427.23971    46.437849    58.645098    7522.9854 
  384200      1536800    9875.0955   -38014.766    276.05115   0.53748085   -28139.671     5016.557    429.46265    -17.43435   -1.5947913    429.81935    46.357849    58.638802    7557.3442 
  384400      1537600     9845.095   -37803.068    275.21251   0.57996207   -27957.973    4833.3735    432.62556   -16.902322   -1.9687055    432.96009    46.277849    58.648538    7591.7808 
  384600      1538400    9829.2334    -37899.67    274.76911   0.41055151   -28070.437    4955.6173    434.56984   -17.829155   -1.1439736    434.93693    46.197849    58.625019    7626.4575 
  384800      1539200     9963.755   -37803.076    278.52957   0.63655695   -27839.321    4782.4664    432.70061   -17.072094   -1.0507687    433.03854    46.117849    58.490779     7661.182 
  385000      1540000    9834.8615   -37801.185    274.92644   0.62104331   -27966.324    4922.0714    434.25803   -17.417312   -1.2591654      434.609    46.037849     58.45565    7695.9468 
  385200      1540800    9984.6474    -37769.93     279.1136   0.74035584   -27785.283    4731.5234    437.75211   -16.593424  -0.62521926    438.06694    45.957849    58.474448    7730.8069 
  385400      1541600    9700.6793   -37723.716    271.17547   0.54687666   -28023.037    5009.3447    437.28088   -16.936291  -0.44099882    437.60896    45.877849    58.381363    7765.7064 
  385600      1542400    9826.3596   -38081.794    274.68878   0.60649477   -28255.434    5253.4216     439.0217   -18.004605  0.084779261    439.39074    45.797849    58.352271    7800.7627 
  385800      1543200      9780.05   -37802.383    273.39422   0.58423443   -28022.333    5081.0218    437.07342   -18.184029  -0.92579906     437.4525    45.717849    58.216892    7835.7851 
  386000      1544000    9862.6464   -37785.097    275.70315   0.67732623   -27922.451    4996.5544    438.75581   -17.463873  -0.99520704    439.10436    45.637849    58.184088    7870.8961 
  386200      1544800    9766.8589   -37930.643    273.02548   0.46927268   -28163.784    5208.6722    443.90911   -16.930912  -0.77212473    444.23254    45.557849    58.250608    7906.3284 
  386400      1545600    9837.1397   -37878.302    274.99013   0.54119989   -28041.162    5080.3705    447.12885   -17.132252   -1.0071872    447.45808    45.477849    58.262766    7941.9033 
  386600      1546400    9692.4224   -37877.234    270.94466   0.56473485   -28184.812    5216.6689    450.36228   -18.333839   -1.2604849    450.73706    45.397849    58.276451    7977.9293 
  386800      1547200    9877.4581   -37872.145     276.1172   0.59277287   -27994.687     5011.054    454.32586   -19.483543    -1.254987    454.74517    45.317849    58.310969    8014.1798 
  387000      1548000    9855.4246   -37832.624    275.50127   0.61887011   -27977.199      5042.37    453.43379   -18.842108   -1.3330808    453.82707    45.237849    58.204737    8050.5386 
  387200      1548800    9814.6112   -37725.588    274.36036   0.54167266   -27910.977    4981.6414    455.83512   -18.797888   -1.3158889    456.22445    45.157849    58.193234    8086.8732 
  387400      1549600    9870.8324   -37571.201    275.93198   0.61586654   -27700.368    4847.3179     452.8259   -18.651846   -1.2715305    453.21165    45.077849    58.027154    8123.3061 
  387600      1550400    9897.8538   -37733.985    276.68735    0.6043362   -27836.131    4996.4583    454.39503   -19.274843    -1.476388    454.80605    44.997849    57.992708    8159.5803 
  387800      1551200    9748.2937   -37960.942     272.5065   0.67503413   -28212.648    5398.1147    455.13302   -19.121178   -1.3734195    455.53658    44.917849     57.93358    8195.9281 
  388000      1552000    9759.4293   -37825.563    272.81779   0.68468753   -28066.134    5268.5229    456.61394   -19.033925  -0.90073706    457.01137    44.837849    57.895717    8232.5746 
  388200      1552800     9785.222   -37740.101     273.5388   0.64447705   -27954.879    5196.4053     456.3104   -19.820488   -1.2940607     456.7425    44.757849    57.808035    8269.0677 
  388400      1553600     9767.788   -37891.041    273.05145   0.61816001   -28123.253    5393.6291    457.20291   -19.143379   -1.9521471    457.60767    44.677849    57.752754    8305.5781 
  388600      1554400    9809.3242   -37692.897    274.21256   0.57599676   -27883.573    5108.9718    463.50669    -19.22575   -2.2474279    463.91069    44.597849    57.852841    8342.4159 
  388800      1555200    9787.5955    -37772.71    273.60515   0.54997499   -27985.115    5252.8561      463.048   -18.154548   -1.6574532    463.40672    44.517849    57.758441    8379.5526 
  389000      1556000     9906.687   -37705.632    276.93427   0.58528807   -27798.945    5158.3573    458.76366   -18.240565   -1.7389772    459.12944    44.437849    57.556233    8416.4736 
  389200      1556800    9670.2337   -37790.526    270.32439   0.72603741   -28120.292    5405.8312    466.88062    -17.82506   -1.8169494     467.2243    44.357849    57.707515    8453.5496 
  389400      1557600    9931.3917   -37703.619    277.62487   0.70776145   -27772.227    5071.6838    468.80658   -18.251781  -0.48837772    469.16199    44.277849    57.682878    8491.0618 
  389600      1558400    9926.9768   -37667.332    277.50146   0.55412866   -27740.356     5061.813     470.3089   -18.868696   -1.1322848    470.68861    44.197849    57.646495    8528.7403 
  389800      1559200    9860.0282   -37614.956    275.62996   0.49926603   -27754.928    5035.9906    476.25894   -18.098318    -1.312955     476.6045    44.117849    57.735521    8566.5625 
  390000      1560000    9997.6526   -37601.566    279.47715   0.63653113   -27603.913    4954.5444    473.70407   -18.761599  -0.15714857    474.07549    44.037849    57.583264    8604.6671 
  390200      1560800    9940.3589     -37658.6    277.87555   0.70452194   -27718.241    5095.3877    474.25632    -18.51581 -0.026371402    474.61763    43.957849    57.518753    8642.6979 
  390400      1561600    9889.7534   -37742.781     276.4609   0.63532203   -27853.027    5226.2937    477.37417   -18.912219  -0.37032786    477.74879    43.877849    57.528215    8680.7691 
  390600      1562400    9755.8488    -37688.16     272.7177   0.61750057   -27932.311    5351.1629    477.03341   -18.582909   -1.6423879    477.39805    43.797849    57.438194    8718.9124 
  390800      1563200    9764.7078   -37668.014    272.96535   0.55229799   -27903.306    5344.3682    478.16719   -19.216482   -1.5794692    478.55577    43.717849    57.391271    8757.1457 
  391000      1564000    9734.4271   -37639.415    272.11887   0.67546631   -27904.988    5377.7621    478.69168   -18.485927   -1.7285307     479.0516    43.637849    57.325438    8795.3958 
  391200      1564800    9766.8984   -37494.242    273.02658   0.62755157   -27727.343    5199.1974    481.41003   -19.686351   -1.4494329    481.81456    43.557849     57.32438    8833.8606 
  391400      1565600    9723.7304   -37505.618    271.81985   0.59406416   -27781.887    5283.8192    482.12606   -18.807728   -1.8411234    482.49628    43.477849    57.263857    8872.3096 
  391600      1566400    9810.2999   -37438.771    274.23984   0.54758685   -27628.471    5108.3281    486.43869   -19.092681   -0.6195296    486.81363    43.397849     57.30721    8910.9934 
  391800      1567200    9750.9394   -37458.479    272.58046    0.6222885    -27707.54     5237.543    485.72426   -19.508042  -0.93246311    486.11675    43.317849    57.207299    8950.0397 
  392000      1568000    9885.2781   -37578.177     276.3358   0.62052616   -27692.899    5198.2296    490.21629   -19.291683  -0.40382407    490.59591    43.237849    57.255275     8989.038 
  392200      1568800    9871.4025    -37482.49    275.94792   0.77304321   -27611.087    5086.5702      495.091    -20.01062  -0.22710123    495.49528    43.157849    57.315257    9028.5263 
  392400      1569600    9908.8603   -37390.599    276.99502   0.61412074   -27481.739    5060.3392     490.5757   -20.187593   -1.0355907    490.99198    43.077849    57.106592    9068.0934 
  392600      1570400    9929.6521   -37563.032    277.57625    0.5964782   -27633.379    5222.4844    492.53472   -21.378811  -0.34011288     492.9986    42.997849    57.083924    9107.3558 
  392800      1571200    9782.1193   -37552.001    273.45207   0.67019905   -27769.882    5300.6653    499.54951   -19.905174    1.0709945    499.94708    42.917849    57.202452    9147.0342 
  393000      1572000    9942.3486   -37468.508    277.93117   0.57441047   -27526.159    5111.3179    498.53113   -19.405669    1.3386395    498.91047    42.837849    57.092834    9187.0702 
  393200      1572800    9796.3496   -37439.007    273.84987   0.72430149   -27642.657    5232.4264    500.93562   -19.876786   0.95182335    501.33072    42.757849    57.081984    9227.0339 
  393400      1573600    9983.8572   -37528.699    279.09151   0.71398149   -27544.841     5137.384    503.57951   -19.636262    1.2784978    503.96383    42.677849    57.077216    9267.1404 
  393600      1574400    9937.4834   -37358.674    277.79516   0.80360567   -27421.191    5080.8103    501.75531   -18.824007   0.50501684    502.10855    42.597849    56.944208    9307.2957 
  393800      1575200    9802.3889   -37446.262    274.01869   0.51022798   -27643.873    5285.0425     505.8226   -19.620441   0.47766556    506.20321    42.517849    56.981198    9347.6084 
  394000      1576000    9759.2627    -37355.17    272.81313   0.60409414   -27595.907    5294.6162    504.82511   -18.399269    1.5763364    505.16275    42.437849    56.871471    9388.2747 
  394200      1576800    9887.5197   -37355.321    276.39846   0.63896897   -27467.801    5163.4728    507.88671   -18.919009    1.5303397    508.24126    42.357849    56.879428    9428.7451 
  394400      1577600    9711.2856   -37466.243    271.47197   0.60654091   -27754.957    5441.8811    511.15342   -19.194432    1.4502732    511.51574    42.277849    56.892985    9469.5494 
  394600      1578400    9763.1213   -37262.173      272.921   0.71904763   -27499.051    5260.0181    508.71053   -19.221246    2.1639862    509.07813    42.197849    56.743339    9510.4062 
  394800      1579200     9736.337   -37406.063    272.17226   0.73201503   -27669.726    5487.5911    507.57458   -19.164969    1.4141243    507.93824    42.117849     56.63077    9550.9726 
  395000      1580000    9882.1722   -37329.151    276.24898   0.70975145   -27446.978    5281.7755    509.18724   -19.982725    2.1382636    509.58368    42.037849    56.597783    9591.7363 
  395200      1580800    9882.6673   -37294.735    276.26282   0.76292794   -27412.067     5260.085    511.04886   -21.347312    2.3976765    511.50014    41.957849    56.572539    9632.5548 
  395400      1581600    9805.1311   -37419.571    274.09535   0.53758423    -27614.44    5423.8912    516.51049   -21.660134    2.1877439    516.96908    41.877849    56.648795    9673.6583 
  395600      1582400    9683.1002   -37297.709    270.68406   0.63436162   -27614.609    5363.0884    523.41746   -22.342446    3.3862586    523.90504    41.797849    56.766965    9715.3943 
  395800      1583200    9831.5247   -37351.377    274.83316   0.72408895   -27519.852    5272.2515    525.92195   -22.024941    2.2611693     526.3878    41.717849    56.757901     9757.422 
  396000      1584000    9830.2132   -37339.779     274.7965   0.64905259   -27509.566    5291.1665    526.69742   -22.714756    2.4603018    527.19274    41.637849    56.700899    9799.6105 
  396200      1584800    9929.0172   -37304.273     277.5585   0.74848908   -27375.256    5254.9189    523.01152   -22.494122    2.5560925    523.50126    41.557849    56.515428    9841.6078 
  396400      1585600    9852.6185   -37118.635    275.42282   0.61915404   -27266.017     5189.813    522.86704   -21.200535    1.7500065     523.2996    41.477849    56.429666    9883.4611 
  396600      1586400    9858.6033   -37177.928    275.59013   0.62978311   -27319.325    5245.5376    525.53473   -20.323289    2.1132425     525.9318    41.397849    56.424872     9925.374 
  396800      1587200    9911.1637    -37172.54    277.05941   0.71281554   -27261.376    5285.6311    521.74979   -20.501138   0.62243867    522.15278    41.317849      56.2369    9967.3248 
  397000      1588000    9862.1092   -37084.525    275.68813   0.67460049   -27222.416    5286.1528     521.9526   -20.494125   0.76942548    522.35536    41.237849    56.162688    10009.059 
  397200      1588800    9806.5368   -37061.839    274.13464   0.70018851   -27255.303    5287.9214    526.77243   -21.250459   0.83105323    527.20154    41.157849    56.221151    10050.934 
  397400      1589600    9939.0437   -37133.419    277.83878   0.65454363   -27194.375     5302.202    524.58958   -21.853942    1.5549229     525.0469    41.077849    56.079589    10093.201 
  397600      1590400    9740.3194   -36963.983    272.28359   0.63084075   -27223.664    5411.4075     522.1062   -21.694322    1.9229672    522.56027    40.997849    55.928543    10135.117 
  397800      1591200    9796.5184   -37093.217    273.85459    0.5655663   -27296.698    5456.0991    526.78282   -20.540607    2.2512575    527.18794    40.917849    55.980762    10176.963 
  398000      1592000    9942.6138   -37114.388    277.93858   0.71574389   -27171.774    5326.6247    529.81805   -20.737362    2.3737973    530.22905    40.837849    55.987651    10219.288 
  398200      1592800    9711.7232   -37072.661     271.4842   0.67928078   -27360.938    5584.1009    528.08868   -19.646596    2.7363372     528.4611    40.757849    55.857138    10261.637 
  398400      1593600    9903.6312   -36980.789    276.84885   0.75950756   -27077.157    5335.2944     528.5291   -18.629421    1.3804467    528.85912    40.677849     55.78851    10303.877 
  398600      1594400    9853.8741   -37091.776    275.45793   0.69004016   -27237.902    5493.6935    531.48013   -19.562556    1.5379694    531.84226    40.597849    55.793743    10346.263 
  398800      1595200    9847.0372   -37052.084     275.2668    0.7196152   -27205.047    5466.2739    534.00263   -18.441744    2.7001264     534.3278    40.517849    55.784758    10388.782 
  399000      1596000    9743.4312    -36958.72    272.37057    0.6174847   -27215.289    5517.1707    534.22597   -17.413858   0.61024052    534.51006    40.437849    55.709965    10431.594 
  399200      1596800    9805.1596   -36907.494    274.09615   0.65286663   -27102.335    5358.1875    540.04419   -17.959997   0.69754962     540.3432    40.357849    55.796627    10474.548 
  399400      1597600    9873.3697   -37111.132    276.00291   0.68630008   -27237.762    5514.7987    541.34998   -18.968646    0.5926309    541.68253    40.277849    55.754893      10517.8 
  399600      1598400    9978.3162   -37079.888    278.93661   0.71364275   -27101.571    5376.8877    544.30627   -18.404102  -0.24569376    544.61738    40.197849    55.758746    10561.391 
  399800      1599200    9840.5307   -37013.914    275.08492   0.62082434   -27173.383    5491.5294    544.25939   -19.957444  -0.89139162     544.6259    40.117849     55.67899    10604.872 
  400000      1600000    9946.6483   -37006.245    278.05136   0.70510605   -27059.597    5456.2764    541.98842   -20.418401  -0.58614347    542.37321    40.037849    55.534627    10648.343 
Loop time of 5634.67 on 8 procs for 400000 steps with 12002 atoms

Performance: 24.534 ns/day, 0.978 hours/ns, 70.989 timesteps/s
83.0% CPU use with 8 MPI tasks x no OpenMP threads

MPI task timing breakdown:
Section |  min time  |  avg time  |  max time  |%varavg| %total
---------------------------------------------------------------
Pair    | 99.777     | 1055.7     | 2524       |2943.5 | 18.74
Bond    | 0.67634    | 7.0807     | 15.947     | 241.9 |  0.13
Neigh   | 2568       | 2576.2     | 2583.9     |  14.9 | 45.72
Comm    | 130.68     | 1124.1     | 1599.1     |1535.8 | 19.95
Output  | 350.45     | 350.6      | 350.83     |   0.6 |  6.22
Modify  | 22.212     | 506.46     | 1035.2     |2138.3 |  8.99
Other   |            | 14.66      |            |       |  0.26

Nlocal:        1500.25 ave        3218 max           0 min
Histogram: 4 0 0 0 0 0 0 0 1 3
Nghost:        4398.50 ave        7884 max         950 min
Histogram: 4 0 0 0 0 0 0 0 0 4
Neighs:       186379.0 ave      459765 max           0 min
Histogram: 4 0 0 0 0 0 1 1 1 1

Total # of neighbors = 1491035
Ave neighs/atom = 124.23221
Ave special neighs/atom = 185.06916
Neighbor list builds = 40000
Dangerous builds = 0

Total wall time: 1:33:56
