LAMMPS (29 Oct 2020)
################################################################################################################
# Template input file to run umbrella sampling
# run 200000 steps0
# read from restart file
# deleted velocity line
# reset timestep to 0 befre running the simulation
################################################################################################################

################################################################################################################
# VARIABLES
################################################################################################################
clear
variable rcut        equal 17.5     #est. 3.5*diameter
variable epsilon     equal 0.8126   #unit conversion
variable sigma       equal 4.7
variable shift       equal 23.5     #center particle radius
variable epsilon_cp  equal 0.5067
variable sigma_cp    equal 5.2
variable epsilon_pp  equal 1.1926
variable sigma_pp    equal 4.7
variable bondKeq     equal 2.9876
variable bondReq1    equal 23.5
variable bondReq2    equal 4.7
variable dt          equal 4.0
variable startTemp   equal 275.0
variable stopTemp    equal 275.0
variable Tdamp       equal 100.0
variable springKeq   equal 35.0
variable velocity    equal -0.0001
variable springX     equal 200.0
variable springY     equal 0.0
variable springZ     equal 0.0
variable springReq   equal 0.0

################################################################################################################
# SETUP
################################################################################################################
units		real
atom_style	molecular
atom_modify     sort 0 0.0       #print out in frames in order

read_data       data.twoParticles
Reading data file ...
  orthogonal box = (0.0000000 0.0000000 0.0000000) to (1000.0000 1000.0000 1000.0000)
  2 by 2 by 2 MPI processor grid
  reading atoms ...
  12002 atoms
  scanning bonds ...
  600 = max bonds/atom
  reading bonds ...
  12000 bonds
Finding 1-2 1-3 1-4 neighbors ...
  special bond factors lj:    0.0      0.0      0.0     
  special bond factors coul:  0.0      0.0      0.0     
   600 = max # of 1-2 neighbors
   600 = max # of 1-3 neighbors
  1200 = max # of 1-4 neighbors
  1800 = max # of special neighbors
  special bonds CPU = 0.055 seconds
  read_data CPU = 0.089 seconds
velocity        all create ${startTemp} 4834834 rot yes mom yes dist gaussian        #turn off rotation and momentum of the particles
velocity        all create 275 4834834 rot yes mom yes dist gaussian        

#read_restart    generic.restart

pair_style	lj/expand ${rcut}
pair_style	lj/expand 17.5
pair_coeff      1 1 0 0 0
pair_coeff      1 2 ${epsilon} ${sigma} ${shift}
pair_coeff      1 2 0.8126 ${sigma} ${shift}
pair_coeff      1 2 0.8126 4.7 ${shift}
pair_coeff      1 2 0.8126 4.7 23.5
pair_coeff      1 3 ${epsilon} ${sigma} ${shift}
pair_coeff      1 3 0.8126 ${sigma} ${shift}
pair_coeff      1 3 0.8126 4.7 ${shift}
pair_coeff      1 3 0.8126 4.7 23.5
pair_coeff      2 2 ${epsilon} ${sigma} 0
pair_coeff      2 2 0.8126 ${sigma} 0
pair_coeff      2 2 0.8126 4.7 0
pair_coeff      2 3 ${epsilon_cp} ${sigma_cp} 0
pair_coeff      2 3 0.5067 ${sigma_cp} 0
pair_coeff      2 3 0.5067 5.2 0
pair_coeff      3 3 ${epsilon_pp} ${sigma_pp} 0
pair_coeff      3 3 1.1926 ${sigma_pp} 0
pair_coeff      3 3 1.1926 4.7 0
special_bonds   lj 0.0 1.0 1.0   #turn off LJ interaction for directly bonded atoms (1-2)
Finding 1-2 1-3 1-4 neighbors ...
  special bond factors lj:    0.0      1.0      1.0     
  special bond factors coul:  0.0      0.0      0.0     
   600 = max # of 1-2 neighbors
   600 = max # of 1-3 neighbors
  1200 = max # of 1-4 neighbors
  1800 = max # of special neighbors
  special bonds CPU = 0.052 seconds

bond_style      harmonic
bond_coeff      1 ${bondKeq} ${bondReq1}
bond_coeff      1 2.9876 ${bondReq1}
bond_coeff      1 2.9876 23.5
bond_coeff      2 ${bondKeq} ${bondReq2}
bond_coeff      2 2.9876 ${bondReq2}
bond_coeff      2 2.9876 4.7
bond_coeff      3 ${bondKeq} ${bondReq2}
bond_coeff      3 2.9876 ${bondReq2}
bond_coeff      3 2.9876 4.7
bond_coeff      4 ${bondKeq} ${bondReq2}
bond_coeff      4 2.9876 ${bondReq2}
bond_coeff      4 2.9876 4.7

neighbor	2.0 bin            #consider cutoff +2 as neighbor
neigh_modify	every 1 delay 0 check yes     #every x step//no delay//check the neighbor list to see if need to update

restart         10 nvt.a.restart nvt.b.restart  #print restart every 10 ?steps?

timestep	${dt}
timestep	4

################################################################################################################
# SIMULATION
################################################################################################################
group           centroid1 id 1           # define group names
1 atoms in group centroid1
group           centroid2 id 6002
1 atoms in group centroid2

fix		1 all nvt temp ${startTemp} ${stopTemp} ${Tdamp}            #last number is how aggressive we want to derive the T back
fix		1 all nvt temp 275 ${stopTemp} ${Tdamp}            
fix		1 all nvt temp 275 275 ${Tdamp}            
fix		1 all nvt temp 275 275 100            
fix             2 centroid1 smd cvel ${springKeq} ${velocity} couple centroid2 auto auto auto ${springReq}
fix             2 centroid1 smd cvel 35 ${velocity} couple centroid2 auto auto auto ${springReq}
fix             2 centroid1 smd cvel 35 -0.0001 couple centroid2 auto auto auto ${springReq}
fix             2 centroid1 smd cvel 35 -0.0001 couple centroid2 auto auto auto 0

thermo_style    custom step time ke pe temp press etotal f_1 f_2[1] f_2[2] f_2[3] f_2[4] f_2[5] f_2[6] f_2[7] # SMD fix computes a "vector" of numbers, have to print the individual elements, as thermo custom only prints scalar numbers (7 quantities described in manual)
thermo          200                  #give an output every x step

dump            1 all custom 200 twoParticles.lammpstrj id type element xu yu zu fx fy fz    #print every x step
dump_modify     1 element A B C     #give element names

run		400000
Neighbor list info ...
  update every 1 steps, delay 0 steps, check yes
  max neighbors/atom: 2000, page size: 100000
  master list distance cutoff = 43
  ghost atom cutoff = 43
  binsize = 21.5, bins = 47 47 47
  1 neighbor lists, perpetual/occasional/extra = 1 0 0
  (1) pair lj/expand, perpetual
      attributes: half, newton on
      pair build: half/bin/newton
      stencil: half/bin/3d/newton
      bin: standard
Per MPI rank memory allocation (min/avg/max) = 195.3 | 196.0 | 197.1 Mbytes
Step Time KinEng PotEng Temp Press TotEng f_1 f_2[1] f_2[2] f_2[3] f_2[4] f_2[5] f_2[6] f_2[7] 
       0            0    9837.4929     -34496.1          275  0.038604638   -24658.607            0            0            0            0            0    199.98019    199.98059            0 
     200          800    9834.5061   -34418.904    274.91651  0.027053761   -24584.398   -72.146237    3.1110598 0.0013456642 -0.000291398    3.1110601    199.90019    199.98948   0.10007627 
     400         1600    9867.2977   -34392.138    275.83317 0.0031559924    -24524.84    -129.1054    3.7317397 -0.00039327186  0.002726206    3.7317407    199.82019    199.92721   0.28683184 
     600         2400    9769.8967   -34423.107     273.1104 -0.035977373    -24653.21  -0.43049373    1.1602856 0.00034596847 0.0001162222    1.1602856    199.74019    199.77374   0.52233221 
     800         3200    9781.6736   -34452.608    273.43961  0.070036641   -24670.935    15.478104     3.844399 0.0032952906 0.00045074565    3.8444005    199.66019    199.77043   0.72539081 
    1000         4000    9892.5232   -34448.994    276.53833  0.050678301   -24556.471   -98.737286    6.8708812 0.0069173142 0.0021449032    6.8708851    199.58019     199.7769    1.1592552 
    1200         4800    9790.4288   -34447.977    273.68436  0.059334279   -24657.549    1.3868388    11.134535  0.008638712 -0.002986219    11.134539    199.50019    199.81872    1.8720162 
    1400         5600    9875.6928   -34471.914    276.06785  0.020607773   -24596.221   -58.871569    9.7383791 0.0071759646 -0.0057540079    9.7383834    199.42019    199.69883      2.73173 
    1600         6400    9811.7618   -34544.183    274.28071  -0.09939904   -24732.421    77.340819    12.596428 0.0099419764 -0.00055923409    12.596432    199.34019    199.70049    3.6701416 
    1800         7200    9823.2876   -34453.869     274.6029  0.015478796   -24630.582   -22.640076    8.7141468  0.014547568 0.0031579809    8.7141596    199.26019    199.50957    4.5659069 
    2000         8000    9945.0951   -34540.976    278.00794  -0.06650138   -24595.881   -56.309146    6.0880362  0.010949741  0.005283333    6.0880483    199.18019    199.35454    5.0391553 
    2200         8800    9738.4691   -34571.731    272.23186   0.11767337   -24833.262    180.85061    6.8008034 0.0075103932 0.0076426032    6.8008118    199.10019     199.2949    5.6520086 
    2400         9600    9860.6419   -34500.703    275.64711  0.017304103   -24640.061    -13.59452    2.5654356 0.0028581462 0.0032890155    2.5654393    199.02019    199.09389    5.9567706 
    2600        10400    9813.6858    -34649.02    274.33449  0.096296184   -24835.335    180.39355    3.9134593 0.0057598307 0.0051672924     3.913467    198.94019     199.0524    6.1585034 
    2800        11200    9825.7618   -34631.564    274.67207  0.041098305   -24805.802     153.0681    -0.479706 -0.00028234089 -0.00063503296   -0.4797065    198.86019    198.84689    6.2762495 
    3000        12000    9811.4337   -34415.882    274.27153 -0.065591328   -24604.449   -48.508775   -4.7184931 -0.0034028298 -0.0077503117   -4.7185007    198.78019    198.64578    6.0551853 
    3200        12800    9759.2621   -34580.462    272.81312 -0.041127037     -24821.2    167.69309   -1.3420317 0.00099968224 -0.0018973635   -1.3420334    198.70019    198.66225    5.7317529 
    3400        13600    9813.6966   -34677.611    274.33479   0.03309792   -24863.915    209.88322    -1.010883 0.00036967129 -0.00074115142   -1.0108833    198.62019    198.59171    5.6804648 
    3600        14400    9911.2382   -34693.026     277.0615  0.079781516   -24781.788    127.78633   -2.5103763 -4.9492488e-05 -0.0012716331   -2.5103766    198.54019    198.46887    5.5030463 
    3800        15200    9798.5211    -34633.54    273.91057 -0.061174361   -24835.018     180.4693   -1.1002045 0.00059393455 -0.00071158892   -1.1002049    198.46019    198.42916    5.4175458 
    4000        16000    9966.8417   -34768.406    278.61585 -0.078748778   -24801.564    144.92655   -2.3671385 0.0015620312 -3.3192821e-05    -2.367139    198.38019    198.31296    5.1957964 
    4200        16800    9841.7271   -34815.676    275.11836  0.031343679   -24973.948    314.95812   -5.2605096 0.0045995836 -0.00048451659   -5.2605117    198.30019    198.15029    4.8967109 
    4400        17600    9777.4554   -34768.257     273.3217  0.024553923   -24990.802    331.91333   0.40449675 -0.0001931483 0.00013486735   0.40449682    198.22019    198.23215    4.7376418 
    4600        18400    9932.8604   -34770.545    277.66593  0.031800255   -24837.685    180.43781   -1.5973615 0.0009264602 -0.00065154935   -1.5973619    198.14019    198.09495    4.6625364 
    4800        19200    9924.8582   -34694.035    277.44224 -0.059059907   -24769.177    113.60808   -2.5623982 0.0027897541 -0.00046343508   -2.5623997    198.06019    197.98738    4.4152407 
    5000        20000    9982.9893   -34684.788    279.06725 -0.084860038   -24701.798    45.623697   -2.5533121 0.0014911236 -0.002112804   -2.5533135    197.98019    197.90764    4.2221643 
    5200        20800    9947.5883   -34801.855    278.07764  0.029570379   -24854.267    196.37523   -3.2833451 -0.00016958246 -0.0027057231   -3.2833462    197.90019    197.80678    3.8592308 
    5400        21600    9801.1249   -34822.608    273.98336   0.11413547   -25021.483    361.93188   -3.9125716 -0.0014645059 -0.0043720577   -3.9125743    197.82019     197.7088    3.5154975 
    5600        22400    9911.9947   -34856.954    277.08265 -0.024764699   -24944.959    284.67879   -4.7783555 -0.0011808536 -0.006828524   -4.7783606    197.74019    197.60407    3.2394708 
    5800        23200    9856.7321   -34674.664    275.53782 -0.043520676   -24817.932    159.42894   -5.6307546 0.00086376351 -0.0085133638   -5.6307611    197.66019    197.49971    2.8904338 
    6000        24000    9808.0904   -34798.734    274.17807 -0.095893423   -24990.644    331.71743   -3.2142246 -0.00033187297 -0.0053355711    -3.214229    197.58019    197.48876    2.5571296 
    6200        24800    9716.2006   -34966.928    271.60936 -0.050907835   -25250.727    589.90342   -1.0781606 -0.00018203592 -0.00098142451   -1.0781611    197.50019    197.46979    2.4550082 
    6400        25600    9791.2056   -34970.847    273.70607 -0.040299157   -25179.641    515.32278   -4.7076437 0.0012289655 -0.0060954047   -4.7076478    197.42019    197.28609    2.2030908 
    6600        26400    9755.7775   -34809.127     272.7157  0.050207915    -25053.35    391.25517   -2.7764665  0.002831458 -0.0025920798   -2.7764691    197.34019    197.26126    1.9472712 
    6800        27200     9890.258   -35083.959    276.47501  -0.10340528   -25193.701    532.21342   -3.8304744 0.0045887945 -0.0023392778   -3.8304779    197.26019    197.15115    1.5195634 
    7000        28000    9954.8948   -34777.358    278.28188 -0.051090913   -24822.464    161.70819   -1.7958462 0.0026025985 -0.00034106792   -1.7958482    197.18019    197.12928    1.2109076 
    7200        28800    9854.2995   -34851.338    275.46982 -0.038655772   -24997.039    336.44931   -2.5141461 0.0046149277 0.0016016208   -2.5141508    197.10019    197.02876    1.0523128 
    7400        29600    9827.2517   -34762.115    274.71371  0.034879883   -24934.863    272.40403 -0.065077649 4.9302088e-05 1.9749172e-05  -0.06507767    197.02019    197.01873   0.84081626 
    7600        30400    9902.5418   -34916.932     276.8184 0.00082607466    -25014.39    350.92256    1.5967017 -0.0020712346 -0.00038446116    1.5967031    196.94019    196.98621   0.93728594 
    7800        31200    9857.4898   -34928.939      275.559  0.049857757    -25071.45    408.68461    1.7039296 -0.0016778494 -0.00033590216    1.7039305    196.86019    196.90928    1.1099697 
    8000        32000    9863.0931   -34928.065    275.71563  0.029512867   -25064.972      403.485    2.0612066 -0.00063797687 -0.0018547927    2.0612076    196.78019    196.83948    1.4091121 
    8200        32800    9726.6865    -34973.75    271.90249 -0.079909174   -25247.064    587.08968    1.5247314 -0.00046411817 0.00088070197    1.5247317    196.70019    196.74416     1.530184 
    8400        33600    9823.0375   -34860.973    274.59591  -0.11005355   -25037.936    377.32532    6.0321939 -0.0060512052 0.0014730112    6.0321971    196.62019    196.79294    1.8575727 
    8600        34400     9836.669   -34770.615    274.97697  0.043018447   -24933.946    271.28812    5.8944191 -0.0029664259 0.0028826076    5.8944205    196.54019      196.709    2.2228339 
    8800        35200    9726.7229   -34906.569    271.90351  0.043372061   -25179.846    517.09429    2.9797713 -0.0019799567 0.0014827202    2.9797723    196.46019    196.54573    2.5893131 
    9000        36000    9688.6238   -35074.392    270.83847  0.019156027   -25385.769    723.03412    5.1026914 -0.0017585936 0.0033977134    5.1026929    196.38019    196.52638    2.9848658 
    9200        36800    9850.1222   -34946.238    275.35304 0.0079884785   -25096.115    434.58993    5.8272028 -0.0038075014 0.0089256054    5.8272109    196.30019    196.46708    3.5599929 
    9400        37600    9900.3597   -35013.758     276.7574 -0.010938241   -25113.399    453.33976    4.6425989 -0.0060117761 0.0058720449    4.6426065    196.22019    196.35324    3.8779641 
    9600        38400     9829.497   -35063.778    274.77648 0.0010968986   -25234.281    572.81508    4.6497047 -0.0082299086 0.0034506521    4.6497132    196.14019    196.27344     4.222723 
    9800        39200    9723.1651   -35269.806    271.80405 -0.046391983   -25546.641     885.7329     7.695973 -0.017804979 0.0073218964    7.6959971    196.06019    196.28048    4.7404569 
   10000        40000    9727.3969   -35151.211    271.92235 0.0040434277   -25423.814    763.53556    3.6182607 -0.010478944 0.0025294505    3.6182768    195.98019    196.08397    5.2380631 
   10200        40800    9947.7675   -35228.165    278.08265 -0.061536257   -25280.398    619.54365    2.6052983 -0.005889574 0.00032734129     2.605305    195.90019    195.97503    5.4411159 
   10400        41600    9785.8976   -35170.487    273.55769 -0.005873785   -25384.589    723.65956  -0.34356495 0.00071538195 -2.4772145e-05  -0.34356569    195.82019    195.81078    5.5538363 
   10600        42400    9845.8326   -35282.538    275.23313  0.057669525   -25436.706    775.50962   -2.6003596 0.0054719274 0.00088502716   -2.6003655    195.74019     195.6663    5.4017304 
   10800        43200    9815.3464   -35173.937    274.38091  0.042127878   -25358.591    697.62869   -5.8100746 0.0067671751 -0.00055050112   -5.8100785    195.66019    195.49459     5.120138 
   11000        44000    9802.7801   -35266.735    274.02963  0.015955703   -25463.955    803.17411   -7.2218567 0.0080723949 0.00085807107   -7.2218612    195.58019    195.37425    4.6301667 
   11200        44800    9889.0931   -35194.781    276.44245  0.027728902   -25305.688    643.47271   -8.6199098  0.011658696 0.0094873522   -8.6199229    195.50019    195.25431    4.0228378 
   11400        45600    9813.9008   -35243.177     274.3405 0.0019594928   -25429.276    764.68499   -10.100128  0.013831305 0.0082657812   -10.100141    195.42019    195.13202    3.1966105 
   11600        46400    9890.5952   -35166.841    276.48444  0.032096768   -25276.246    610.92575   -5.6847316  0.010830113 0.0013652433   -5.6847421    195.34019    195.17817     2.632789 
   11800        47200     9856.661   -35371.375    275.53583  0.066777808   -25514.714    848.57729   -4.8219309  0.008327294  0.003573125   -4.8219394    195.26019    195.12282    2.1623607 
   12000        48000    9801.2071   -35348.423    273.98566  0.017132546   -25547.216    879.63481    2.7894837 -0.0041026784 -0.0043849207    2.7894902    195.18019    195.26029    1.9800465 
   12200        48800    9794.9209   -35268.835    273.80993   0.13559952   -25473.914    807.21545    6.4461493 -0.0069070841 -0.0096799974    6.4461602    195.10019    195.28477    2.4804773 
   12400        49600    9778.9938   -35312.154     273.3647 -0.033384208    -25533.16    869.09843    2.4681866 -0.0049138527 -0.0026399241    2.4681929    195.02019    195.09111    2.7441394 
   12600        50400    9756.9389   -35258.564    272.74817 -0.035780344   -25501.625    838.19306    5.3233907 -0.008717049 -0.0076846722    5.3234034    194.94019    195.09269    3.0351434 
   12800        51200    9926.8203    -35221.73    277.49708 -0.022471451   -25294.909    630.24639    5.8956421 -0.013133834 -0.0068307824    5.8956607    194.86019    195.02904    3.5649161 
   13000        52000    9862.9759   -35243.257    275.71236   0.10484735   -25380.281    714.88341    6.0857157 -0.012800483 -0.0069587954    6.0857331    194.78019    194.95447    4.0338854 
   13200        52800    9920.8588   -35383.306    277.33043  0.095913815   -25462.447    798.08261  0.089356059 -0.00020871532 -0.0001231466  0.089356387    194.70019    194.70314    4.3872079 
   13400        53600    9873.5047   -35327.918    276.00668 -0.082449105   -25454.413    791.48661    -3.580658 0.0079707604  0.004105983   -3.5806692    194.62019    194.51829    4.2263159 
   13600        54400    9942.8862   -35334.571    277.94619  -0.12349069   -25391.685    729.47116   -2.5273849 0.0061480036 0.0027883809   -2.5273939    194.54019    194.46838    4.0350187 
   13800        55200     9941.999   -35370.202    277.92139 -0.078648075   -25428.203    763.47321    -1.745259 0.0044441945 0.0019523661   -1.7452658    194.46019    194.41073    3.9039374 
   14000        56000    9786.7041   -35407.237    273.58024   0.11102685   -25620.532    953.68394   -1.6151398 0.0033541723 0.0015231217    -1.615144    194.38019    194.33444     3.668739 
   14200        56800    9891.0763   -35511.815    276.49788  0.023944089   -25620.739    954.45058   -1.0059535 0.0020173565 0.0015998683   -1.0059568    194.30019    194.27185    3.5831419 
   14400        57600    9817.8538   -35482.249      274.451  -0.05757576   -25664.395    999.28664    1.2761748 -0.0028275501 -0.0011338288    1.2761784    194.22019    194.25705    3.5205528 
   14600        58400    9723.7711   -35364.576    271.82099 -0.060357699   -25640.805    977.29222     1.296632 -0.0024618103 -0.001417156    1.2966351    194.14019    194.17764    3.6917396 
   14800        59200    9720.9496   -35345.539    271.74212  0.052785327   -25624.589    961.00768  -0.76430259  0.001554953 0.00037799708  -0.76430427    194.06019    194.03875    3.6866255 
   15000        60000     9847.628    -35482.38    275.28332 0.0062737456   -25634.752     969.5718   0.54401592 -0.0013192271 -0.00027128339   0.54401759    193.98019    193.99614    3.5954964 
   15200        60800    9813.7352   -35522.895    274.33587  -0.10042629    -25709.16    1041.8417   -1.9688548 0.0051282606 0.00027964769   -1.9688615    193.90019    193.84434    3.5885806 
   15400        61600    9749.1012   -35483.532    272.52907  0.012042952   -25734.431    1067.0582    1.4861083 -0.0042413742 -0.0015388156    1.4861151    193.82019    193.86305    3.6338803 
   15600        62400    9910.3831    -35371.23    277.03759 -0.019272247   -25460.847    795.41171    3.0640547 -0.0088822023 -0.0029440251     3.064069    193.74019    193.82814    3.8069482 
   15800        63200    9862.9008   -35372.682    275.71026  -0.10207211   -25509.781    845.80914    3.3993375 -0.011052883 -0.0059124828    3.3993606    193.66019    193.75772    4.1172168 
   16000        64000    9727.9433   -35359.568    271.93762 -0.034693357   -25631.624    965.83087   0.40564677 -0.0009860234 -0.00093722676   0.40564905    193.58019    193.59218    4.3068637 
   16200        64800    9808.1632    -35575.67    274.18011   0.17183389   -25767.507    1099.9024  0.066764402 -0.00013596222 -0.00012609192  0.066764659    193.50019     193.5025    4.3258269 
   16400        65600    9791.4202    -35546.57    273.71207   0.10915267    -25755.15    1086.5992    1.6292099 -0.0047365743 -0.0034586683    1.6292205    193.42019    193.46714    4.2577004 
   16600        66400    9733.6383   -35357.056    272.09682 -0.055493385   -25623.418    958.25934   -1.9863567 0.0062367989 0.0045874258   -1.9863718    193.34019    193.28384    4.2372933 
   16800        67200    9871.8355   -35368.542    275.96002 -0.098954614   -25496.706    833.96095   -4.0484495  0.012494459  0.011238859   -4.0484844    193.26019    193.14492    4.0346592 
   17000        68000    9800.2942   -35371.209    273.96014 -2.0860925e-05   -25570.914    907.13683   0.75547387 -0.0017646068 -0.0014509519   0.75547732    193.18019    193.20218    3.9034823 
   17200        68800    9759.2857   -35513.284    272.81377 -0.012682669   -25753.998    1086.9469   0.10480618 -0.00031803803 -0.00017761799   0.10480681    193.10019    193.10359    3.8827998 
   17400        69600    9727.7729   -35489.194    271.93286   0.12736532   -25761.421    1091.0838  -0.61281676 0.0019870596 0.00067232113  -0.61282035    193.02019    193.00308    3.8573549 
   17600        70400     9803.215   -35575.012    274.04179 -0.056616191   -25771.797    1102.4779   0.80904054 -0.0022992941 -0.00048968664   0.80904396    192.94019    192.96371    3.9059632 
   17800        71200    9706.1131   -35526.863    271.32737  0.026485112    -25820.75    1155.2964   0.36365501 -0.0011141459 -0.0004383116   0.36365698    192.86019    192.87098    3.8574963 
   18000        72000    9977.7894   -35537.417    278.92189 -0.024637152   -25559.627    894.15116    3.9151597 -0.012360283 -0.0042944928    3.9151816    192.78019    192.89245    4.0130243 
   18200        72800    9761.8559   -35507.361    272.88562  0.015150836   -25745.506    1078.4861    2.9650706 -0.010089013 -0.0021815819    2.9650886    192.70019    192.78531    4.2837638 
   18400        73600    9810.1429   -35632.621    274.23545  0.035384164   -25822.478    1155.1649            0            0            0            0    192.62019    192.62055    4.4149882 
   18600        74400    9761.7526   -35594.263    272.88274  0.016759278    -25832.51    1165.4205    1.0521609 -0.0031860913 -0.0010997025    1.0521663    192.54019    192.57065    4.4228861 
   18800        75200    9841.1879   -35628.845    275.10329  -0.00707332   -25787.657    1121.3289   -5.0469459  0.015960037 0.0053948926    -5.046974    192.46019    192.31639    4.3197784 
   19000        76000     9913.129   -35645.837    277.11435 -0.010606088   -25732.708    1066.0798   -3.3791914  0.012726333 0.0037352067   -3.3792174    192.38019    192.28404    4.0866701 
   19200        76800    9911.5871   -35629.989    277.07125  0.031989268   -25718.402    1050.7526   -6.2371641  0.023725213 0.0032605151     -6.23721    192.30019    192.12239    3.7634865 
   19400        77600    9786.7183   -35586.966    273.58063  0.080255501   -25800.248    1130.6693   -6.1731175  0.018534203 0.0042773095   -6.1731468    192.22019    192.04422     3.245049 
   19600        78400    9787.3685   -35585.987    273.59881 -0.046536113   -25798.619    1129.1495   -3.3053066  0.011496158 0.0040055175    -3.305329    192.14019    192.04615     2.869677 
   19800        79200     9924.527   -35697.305    277.43298 -0.013184506   -25772.778    1102.6189   -5.4464699  0.016244064 0.0082088192   -5.4465003    192.06019    191.90498    2.5961771 
   20000        80000    9952.6937   -35577.759    278.22035  0.062567316   -25625.066    954.96284  -0.34677458 0.0011127362 0.00046326821  -0.34677668    191.98019    191.97068    2.4724098 
   20200        80800    9903.8401   -35655.628    276.85469 -0.016325269   -25751.788    1082.6412   0.17970838 -0.00051403323 -0.00019028732   0.17970922    191.90019    191.90573     2.532546 
   20400        81600    9734.4316   -35643.481      272.119   0.02853591   -25909.049    1238.9147  -0.15854062 0.0004833903 0.00020158999  -0.15854148    191.82019    191.81606    2.4690531 
   20600        82400    9918.6799   -35736.401    277.26952   0.05455658   -25817.721    1147.6859    4.6144149 -0.015706474 -0.0067905767    4.6144467    191.74019    191.87243     2.593874 
   20800        83200    9783.1657   -35678.279    273.48132 -0.090392766   -25895.113    1226.2092    2.1680972 -0.0075609592 -0.0038668423    2.1681138    191.66019    191.72254    2.8389354 
   21000        84000    9863.3991    -35711.53    275.72419 -0.044702194   -25848.131    1178.0464     1.874918 -0.0065261899 -0.0022725763    1.8749307    191.58019    191.63416    3.0042702 
   21200        84800    9814.6318   -35670.848    274.36094   0.08333107   -25856.216    1186.2149    1.7599062 -0.0057984274 -0.0023773047    1.7599174    191.50019    191.55087    3.0603151 
   21400        85600    9859.5662   -35536.807    275.61704 -0.061170332   -25677.241    1009.0132   0.30273505 -0.0010486486 -0.00030697926   0.30273702    191.42019    191.42924    3.0706665 
   21600        86400    9955.0762   -35576.524    278.28696 -0.026045826   -25621.448    956.96583    2.2646464 -0.0094790387 -0.002578127    2.2646677    191.34019     191.4053      3.28671 
   21800        87200    9933.4138    -35655.39     277.6814 -0.048002374   -25721.976     1056.026    1.4225913 -0.0051232248 -0.0018056496    1.4226017    191.26019    191.30124    3.4410117 
   22000        88000    9906.6868   -35739.014    276.93426  0.014823441   -25832.328    1162.1571    4.5606726 -0.020877907 -0.0069251258    4.5607257    191.18019     191.3109    3.6983584 
   22200        88800     9862.158    -35649.24     275.6895  0.098530623   -25787.082    1113.8622     6.869245 -0.032245889 -0.010168289    6.8693282    191.10019    191.29686    4.2040081 
   22400        89600    9821.3467   -35555.491    274.54864  0.046809172   -25734.145    1063.5072    4.2181651 -0.022437352 -0.0048792912    4.2182276    191.02019    191.14111    4.5920177 
   22600        90400    9783.7471   -35624.547    273.49758  -0.12184867     -25840.8    1175.1994  -0.42204964 0.0023483433 0.00051398149  -0.42205649    190.94019    190.92853    4.6786662 
   22800        91200    9813.2258   -35673.039    274.32163  -0.14319199   -25859.813    1194.8006   -2.0546659  0.010869477 0.0034903164   -2.0546976    190.86019    190.80189    4.5259315 
   23000        92000    9791.3017   -35726.868    273.70876 -0.044630755   -25935.566    1266.9732   -1.3527058 0.0067732828 0.0014622207   -1.3527235    190.78019    190.74194    4.2932042 
   23200        92800      9853.82   -35692.153    275.45641 -0.064726291   -25838.333    1167.2921    0.7751128 -0.0037676247 -0.0011384135   0.77512279    190.70019    190.72274    4.4256601 
   23400        93600    9775.2165   -35742.781    273.25911 -0.021978893   -25967.565    1295.9726   -3.9448744  0.016206623 0.0053717735   -3.9449114    190.62019    190.50788    4.2634333 
   23600        94400    9828.7409   -35813.751    274.75535 -0.082986644    -25985.01    1314.4588   -1.0659201 0.0046490088 0.0014119241   -1.0659311    190.54019    190.51014    4.1598977 
   23800        95200    9826.8209   -35736.542    274.70167 -0.066729661   -25909.721    1240.3798     1.509156 -0.0070837743 -0.0015945577    1.5091734    190.46019    190.50371    4.3457185 
   24000        96000    9917.9173   -35743.608    277.24821 -0.053096268   -25825.691    1157.5414    3.3634995 -0.010755704 -0.0037312242    3.3635187    190.38019    190.47669    4.5095034 
   24200        96800    9836.0628   -35749.115    274.96002 -0.014102596   -25913.052    1244.6001   -2.8540778  0.010514595 0.0029660367   -2.8540987    190.30019    190.21905    4.3382245 
   24400        97600    9754.3564   -35689.049    272.67598  0.062030917   -25934.692    1266.2388    -2.305576 0.0079377572 0.0022678329   -2.3055907    190.22019    190.15472    4.0627261 
   24600        98400    9910.3145   -35581.979    277.03567 -0.030328939   -25671.664    1001.7052   -6.1061933  0.017971056 0.0009980703   -6.1062199    190.14019    189.96613    3.7597958 
   24800        99200    9842.8864   -35679.183    275.15077  0.054698476   -25836.296    1165.8605   -6.6660334  0.027973375 -0.0028105692   -6.6660927    190.06019    189.87013    3.1132636 
   25000       100000    9685.5957   -35721.597    270.75382  0.017213401   -26036.001    1366.2209   -3.0119858  0.012374589 -0.00039842113   -3.0120113    189.98019    189.89453    2.7650292 
   25200       100800    9800.9481    -35734.65    273.97842 -0.015150619   -25933.702    1265.6643  -0.23926615 0.00078372798 5.8160272e-05  -0.23926744    189.90019    189.89376    2.6195157 
   25400       101600    9993.2083   -35607.614    279.35291   0.09019143   -25614.406    944.80543   0.32316655 -0.0010944325 -0.00024456498    0.3231685    189.82019    189.82983     2.701755 
   25600       102400    9837.5938   -35908.048    275.00282  0.058874062   -26070.454    1398.4814     2.636034 -0.010928469 -0.0018066356    2.6360573    189.74019    189.81591    2.8413615 
   25800       103200    9947.3103   -35816.743    278.06987  0.097378395   -25869.432    1197.3529    7.7278825 -0.026306514 -0.0053508606    7.7279292    189.66019    189.88139     3.135968 
   26000       104000    9833.0168    -35735.25    274.87488  0.049517208   -25902.233    1230.9797    8.1825729 -0.032347016 -0.0039362677    8.1826378    189.58019    189.81438     3.782123 
   26200       104800    9909.8078   -35962.649    277.02151  0.036227508   -26052.842    1382.5951    1.8777126 -0.0073194875 0.00062867032     1.877727    189.50019    189.55424    4.0832722 
   26400       105600    9955.0153   -35926.129    278.28526   0.03408572   -25971.113    1300.3608  -0.83348681  0.003312796 -0.00051882334  -0.83349355    189.42019    189.39678    3.9688002 
   26600       106400    9831.3012   -35780.058    274.82692 0.0078196406   -25948.757    1276.0566 -0.085025421 0.00038043495 -4.4837754e-05 -0.085026284    189.34019    189.33816    4.0151165 
   26800       107200    9780.1506   -35957.407    273.39704  0.045417763   -26177.256     1505.051   -2.9548128  0.013316844 -0.00048012411   -2.9548429    189.26019    189.17617    3.8694058 
   27000       108000    9898.7837   -35859.413    276.71334  0.019510049   -25960.629    1288.8534   -1.0164094 0.0047957041 -0.00020171678   -1.0164208    189.18019    189.15155    3.7188105 
   27200       108800    9731.9305   -35777.872    272.04908 -0.075699653   -26045.941    1375.1572   0.80662691 -0.0038386545 0.00018727121   0.80663607    189.10019    189.12364    3.7814699 
   27400       109600    9800.4146   -35820.724     273.9635  -0.06095552    -26020.31    1350.0593   -2.3532566  0.011446752 -0.0013398366   -2.3532848    189.02019    188.95335    3.7766832 
   27600       110400    9851.0381   -35881.194    275.37865  0.047450815   -26030.155    1357.5402   -3.7075465  0.017085864 0.00056036686   -3.7075859    188.94019    188.83466    3.5282651 
   27800       111200    9910.3771   -35897.698    277.03743   0.14075835   -25987.321    1311.9174   -4.8255655    0.0241086 0.00098889624   -4.8256259    188.86019    188.72272    3.0790282 
   28000       112000    9911.9006   -35944.346    277.08001   0.12899956   -26032.445    1357.5558   0.28990584 -0.0013337197 1.2662579e-05   0.28990891    188.78019    188.78887    2.8933129 
   28200       112800    9878.6312   -35847.005    276.14999   0.05172421   -25968.373    1295.8878    1.4887293 -0.0060893969 -0.0014361059    1.4887424    188.70019    188.74313    2.9281529 
   28400       113600    9810.6474   -35862.903    274.24955  0.021958286   -26052.256    1383.1915   -1.5622075 0.0068973549 0.0012535955   -1.5622232    188.62019    188.57596    2.8804949 
   28600       114400    9883.7832   -35912.544    276.29401  -0.02048237   -26028.761    1359.4964   -1.7189903 0.0067595695 0.00085579847   -1.7190038    188.54019    188.49148    2.6326508 
   28800       115200     9787.442   -35834.795    273.60086 -0.035882927   -26047.353    1373.9091   -3.0191121  0.011743528 0.0014517387   -3.0191353    188.46019    188.37433     2.428837 
   29000       116000     9894.548   -35941.427    276.59493   0.11541033   -26046.879    1370.0525    5.1505315 -0.021551251 -0.0048150134    5.1505789    188.38019    188.52775    2.5601806 
   29200       116800    9805.8486   -36005.911    274.11541  0.048448271   -26200.062     1524.536    2.1885798 -0.008743573 -0.0015091405    2.1885978    188.30019    188.36312    2.8915824 
   29400       117600    9920.3683   -35965.953    277.31672  -0.10654489   -26045.584    1371.9133    4.6149152 -0.020539323 -0.0036954503    4.6149624    188.22019    188.35245     3.083287 
   29600       118400    9638.6644   -35986.737    269.44189 -0.035793169   -26348.072    1676.8524    5.0193789 -0.023325983 -0.0032889996    5.0194342    188.14019      188.284    3.6052063 
   29800       119200      9818.43   -35881.833    274.46711  0.032427815   -26063.403    1393.5517    1.1810722 -0.0052537139 -0.00073432385    1.1810842    188.06019    188.09434    3.9796703 
   30000       120000    9735.6694   -35962.564     272.1536  -0.10321121   -26226.895     1555.482    1.4494519 -0.0070820673 -0.00046719677    1.4494693    187.98019    188.02201     4.030428 
   30200       120800    9797.1403   -35986.098    273.87197  0.081172222   -26188.957    1516.4781  -0.31272576 0.0015066645 -3.9140855e-05   -0.3127294    187.90019    187.89166    4.2004725 
   30400       121600    9823.7725   -35869.207    274.61646 -0.00045128338   -26045.434    1372.5186   -1.6632609 0.0098453352 0.0004202587   -1.6632901    187.82019    187.77307    4.1386101 
   30600       122400    9793.1417   -35788.731    273.76019  -0.03175733    -25995.59    1324.2482   -4.7476773  0.026720664 0.0027688941   -4.7477533    187.74019    187.60494    3.9043179 
   30800       123200    9857.3673   -35945.787    275.55557 -0.042637346   -26088.419    1417.2241   -7.0833627  0.042171064 0.0037002757   -7.0834892    187.66019    187.45821    3.3298793 
   31000       124000    9838.2667   -35895.523    275.02163  0.026517568   -26057.257    1385.1474   -1.5145257 0.0094261121 0.00065460909   -1.5145551    187.58019    187.53732    3.0196416 
   31200       124800     9906.713   -36020.632      276.935  0.014130655   -26113.919    1440.0815   0.75889731 -0.0042866836 -0.0010144257    0.7589101    187.50019    187.52227    2.9002181 
   31400       125600    9801.4636   -35986.172    273.99283 -0.027767217   -26184.708    1509.0172    4.7906114 -0.029208387 -0.0041955603    4.7907022    187.42019    187.55747    3.0650615 
   31600       126400    9797.7582    -36043.51    273.88925   0.05203296   -26245.751    1570.8782     1.348675 -0.007878144 -0.00092336665    1.3486983    187.34019    187.37913    3.2765575 
   31800       127200    9748.1609   -35997.426    272.50279 -0.073521588   -26249.265    1575.5083   0.11430473 -0.00064367533 -0.00010953066    0.1143066    187.26019    187.26386    3.3424046 
   32000       128000    9914.8666   -35920.519    277.16293  0.014154166   -26005.653    1331.7737      2.15346 -0.011550644 5.5566294e-05     2.153491    187.18019    187.24212    3.4633734 
   32200       128800    9933.5264   -35971.159    277.68455  0.011012147   -26037.632    1365.6674   0.89976342 -0.0053968228 0.00043819682   0.89977971    187.10019     187.1263    3.7307681 
   32400       129600     9915.127   -36047.782    277.17021  0.016184222   -26132.655    1459.1304  -0.42755565  0.002325427 -2.9249782e-05  -0.42756197    187.02019    187.00838    3.7537085 
   32600       130400    9727.0075    -35987.93    271.91146  0.041367298   -26260.922    1588.0532            0            0            0            0    186.94019    186.93964    3.7245897 
   32800       131200    9732.7114   -35934.452    272.07091   0.11359033   -26201.741    1527.7078    3.3740718 -0.017264148 0.00045906548     3.374116    186.86019    186.95699    3.8300105 
   33000       132000    9747.4806     -35976.6    272.48377 -0.043087422   -26229.119    1555.5057    3.6957104 -0.018850479 0.0024601772    3.6957593    186.78019    186.88618    3.9626518 
   33200       132800    9742.6542   -36014.529    272.34885 0.0022952944   -26271.875    1599.0406    1.7201209 -0.0085968499 0.00078970044    1.7201426    186.70019    186.74974    4.2068527 
   33400       133600    9798.7843   -35995.529    273.91793   0.04847233   -26196.745    1524.6174   -1.4651902 0.0065427562 -0.00040730823   -1.4652049    186.62019    186.57873    4.1530926 
   33600       134400    9819.4771   -36079.314    274.49638 -0.072479383   -26259.837    1587.8605   -2.6079479   0.01270193 -0.0012738702   -2.6079792    186.54019    186.46608     4.056209 
   33800       135200    9841.8021   -35914.919    275.12046  0.003286184   -26073.116    1400.0804   -6.0586991  0.033637319 -0.0059548815   -6.0587954    186.46019    186.28748    3.8471495 
   34000       136000    9828.8161   -36045.387    274.75745  0.011490282   -26216.571    1544.4209     2.270636 -0.013882928 0.0018324407    2.2706792    186.38019    186.44547    3.7286544 
   34200       136800    9792.1227   -36055.797    273.73171 -0.013906586   -26263.674    1590.6475    7.5337374 -0.045262784 -0.0018628457    7.5338736    186.30019    186.51585    4.0950448 
   34400       137600      9891.04   -35972.357    276.49687  0.084414008   -26081.317    1408.0364    2.1341368 -0.014166452 -0.0017628882    2.1341845    186.22019    186.28157    4.4921421 
   34600       138400    9728.3587    -36034.37    271.94923  0.016172189   -26306.011    1633.3764  -0.98289406 0.0072790384 0.00029942653  -0.98292106    186.14019    186.11251    4.3695645 
   34800       139200    9980.2302   -36188.935    278.99012  -0.13869912   -26208.705    1535.8499    2.8691282 -0.020639993 -0.00069329207    2.8692025    186.06019    186.14257    4.3299991 
   35000       140000    9969.2838   -36035.465    278.68412    0.1091259   -26066.181    1390.8681   -1.0617281 0.0075319897 0.0006190966    -1.061755    185.98019    185.95026    4.3408898 
   35200       140800    9812.2686   -36161.721    274.29487  0.078961641   -26349.453    1673.2072   -3.1148014  0.021858935 0.00022078012   -3.1148781    185.90019     185.8116    4.1584804 
   35400       141600    9796.8951   -36157.205    273.86512 -0.0036682113    -26360.31    1684.0821   -4.8643076  0.033124648 0.0021926775   -4.8644209    185.82019    185.68161    3.7901498 
   35600       142400    9794.7768    -36109.38     273.8059 -0.092304733   -26314.603    1639.4777   -6.2671747  0.044936308 0.0062100848   -6.2673388    185.74019    185.56152    3.3258791 
   35800       143200      9921.67   -36050.172    277.35311 -0.027107931   -26128.502    1452.6023   -7.0773035   0.05135416 0.0088433047   -7.0774953    185.66019    185.45838    2.7667301 
   36000       144000    9784.8986   -36133.784    273.52977 0.0087966018   -26348.885     1670.737   -5.4393977  0.035917084 0.0054256165    -5.439519    185.58019    185.42518    2.4931926 
   36200       144800    9815.7482    -36184.69    274.39214  0.068364272   -26368.941    1689.5339   -7.4854321  0.051918247 0.0091453055   -7.4856178    185.50019    185.28672    2.1238758 
   36400       145600    9900.3078   -36062.953    276.75595  0.008544081   -26162.645    1485.0793   -6.9943616  0.047556437 0.0046604152   -6.9945248    185.42019    185.22075    1.5011256 
   36600       146400    9798.5337   -36126.894    273.91093  0.022316421   -26328.361    1652.6495  -0.84415789 0.0057709335 0.00052420601  -0.84417778    185.34019    185.31647    1.1332906 
   36800       147200    9796.3329   -36106.216     273.8494 -0.0014909049   -26309.883    1633.5364   -1.1519224 0.0084290818 0.0002491031   -1.1519532    185.26019    185.22768    1.0845696 
   37000       148000    9884.7566   -35991.826    276.32122  0.070914613    -26107.07    1430.4472    0.4399859 -0.0030353528 -0.00013241176   0.43999639    185.18019    185.19316    1.0477645 
   37200       148800    9831.8053    -36162.04    274.84101   0.10554251   -26330.235    1652.5103    3.8526634 -0.027369889 0.0014674726    3.8527609    185.10019    185.21067    1.1779362 
   37400       149600    9763.1639   -36087.673    272.92219  0.046341379   -26324.509    1648.4516    4.9824732 -0.036896404 0.0021919519    4.9826103    185.02019    185.16295    1.4770838 
   37600       150400    9814.1288   -35967.442    274.34687 0.0091114707   -26153.313    1476.7634    10.348817 -0.073044831 0.00053753181    10.349074    184.94019    185.23628    2.0501911 
   37800       151200    9945.5117   -36115.095    278.01959  0.060034153   -26169.583    1490.3988    14.800579  -0.11698674  0.001878954    14.801042    184.86019    185.28348     3.013809 
   38000       152000    9834.5384   -36140.295    274.91741  0.037007041   -26305.757    1629.2243    11.206807 -0.087291162 -0.0021983885    11.207147    184.78019     185.1008    4.0232776 
   38200       152800    9862.8976   -36171.899    275.71017 -0.021661997   -26309.001    1634.4356    11.898138 -0.086480543 -0.0026866627    11.898452    184.70019    185.04055    4.8588717 
   38400       153600    9894.5878   -36047.153    276.59605  0.030082147   -26152.565    1479.4871    9.0664411  -0.06333923 -0.0077803382    9.0666657    184.62019    184.87964    5.6829187 
   38600       154400    9835.9693   -36174.811    274.95741  0.056954738   -26338.842    1667.0829    4.5371473 -0.031635565 -0.0041109431    4.5372594    184.54019    184.67023    6.1799853 
   38800       155200     9838.485   -36185.138    275.02773  -0.06015293   -26346.653    1673.8344    2.7249889 -0.020332073 -0.0010153043     2.725065    184.46019    184.53845    6.4574864 
   39000       156000     9748.412   -36132.578    272.50981  0.060945311   -26384.166    1709.7212    2.7574203 -0.021352109 -0.0018903593    2.7575036    184.38019    184.45938    6.7710061 
   39200       156800    9837.0578   -36192.593    274.98784   0.11324171   -26355.535    1682.1154   -2.8116224  0.021680408 0.00019739584    -2.811706    184.30019    184.22026      6.73014 
   39400       157600     9794.999    -36275.73    273.81211   0.11282637   -26480.731    1808.1943   0.53852536 -0.0042803986 -0.00052617627   0.53854262    184.22019    184.23598    6.5668815 
   39600       158400    9770.7568   -36218.142    273.13444  -0.12033158   -26447.386    1775.6012  -0.44543932 0.0036290438 0.00071786118  -0.44545469    184.14019    184.12786    6.6813488 
   39800       159200    9838.2205   -36182.746    275.02034  0.057596998   -26344.526    1671.8232  -0.93526603 0.0074900829 0.0014910139  -0.93529721    184.06019    184.03387    6.5317519 
   40000       160000    9764.6296   -36313.687    272.96316 -0.022785962   -26549.057    1874.4162   -1.3656118  0.010688839 0.0016770829   -1.3656547    183.98019    183.94157    6.4617711 
   40200       160800    9705.7649   -36214.918    271.31764  0.025428711   -26509.153    1834.0636   -1.2422562 0.0097465256 0.0018454006   -1.2422958    183.90019     183.8651    6.3747671 
   40400       161600    9848.7591   -36259.886    275.31494  0.055359432   -26411.127    1737.3235    -2.249365  0.017312448 0.0028392459   -2.2494334    183.82019    183.75632    6.2230506 
   40600       162400    10019.376    -36313.93    280.08442  -0.16359862   -26294.554    1620.8308   -5.9033266  0.044855418 0.0087712308   -5.9035036    183.74019    183.57192      5.85507 
   40800       163200    9792.8807   -36217.315     273.7529 -0.050359212   -26424.434    1750.5479   -3.1968892  0.023280254 0.0056366826   -3.1969789    183.66019    183.56925    5.4447086 
   41000       164000    9750.7132   -36244.316    272.57414  0.013768521   -26493.603    1817.7321   -5.1846315  0.038745681  0.012878655   -5.1847923    183.58019    183.43245    5.0243702 
   41200       164800    9850.9451   -36245.697    275.37605    0.1450881   -26394.751    1715.9833    -8.911466  0.072324294  0.011440554   -8.9117668    183.50019    183.24597    4.4192716 
   41400       165600    9663.2434   -36282.729    270.12898 -0.057015934   -26619.486    1940.5965   -5.3785141  0.041512053  0.012311347   -5.3786884    183.42019    183.26691    3.8675573 
   41600       166400    9912.0356   -36285.658    277.08379 -0.081656921   -26373.622    1696.0332   -6.5472519  0.051428493  0.016929554   -6.5474758    183.34019    183.15352    3.4054325 
   41800       167200    9823.2118   -36374.458    274.60078 -0.026719082   -26551.246    1872.4895   -5.9646663  0.044215006  0.011716127   -5.9648417    183.26019    183.09017     2.974555 
   42000       168000    9791.4339   -36316.206    273.71245 -0.018381823   -26524.772    1844.0021   -6.4981902  0.050618949   0.01649306   -6.4984083    183.18019    182.99492    2.4631921 
   42200       168800    9875.8002   -36286.805    276.07085  0.080721194   -26411.004    1730.0856   -7.2442325  0.054964431  0.018910293   -7.2444657    183.10019    182.89361    2.0235245 
   42400       169600    9775.4274   -36391.596    273.26501  -0.16292291   -26616.168    1936.7583    -4.838156   0.03889983  0.011969109   -4.8383271    183.02019    182.88235    1.6358086 
   42600       170400    9851.9877   -36396.219    275.40519 -0.079120965   -26544.231    1864.1246    -3.678896  0.028679861 0.0084867167   -3.6790175    182.94019    182.83548    1.2983357 
   42800       171200    9886.9543   -36446.441    276.38266 -0.017673741   -26559.487    1878.6537   -0.5664148 0.0043391278 0.0011312049  -0.56643255    182.86019    182.84441    1.0459619 
   43000       172000    9933.0589   -36448.342    277.67148 -0.028467617   -26515.283    1834.6404   0.97762137 -0.0076223267 -0.0014512396   0.97765217    182.78019    182.80852    1.1024141 
   43200       172800    9863.9573   -36374.157    275.73979  0.026071196     -26510.2    1830.6034    1.7770467 -0.013152273 -0.0023648809    1.7770969    182.70019    182.75137    1.0589992 
   43400       173600    9734.2985   -36368.563    272.11528  0.025882077   -26634.264    1953.5257    2.0914802 -0.015541734 -0.0030403864    2.0915402    182.62019    182.68035     1.181292 
   43600       174400    9776.4182   -36521.832     273.2927 -0.012961931   -26745.414    2064.1602    3.9136624 -0.031122047 -0.0048161149    3.9137891    182.54019    182.65241    1.4432162 
   43800       175200    9804.4532       -36466     274.0764   -0.1335041   -26661.547    1980.6714    1.3731995 -0.011833431 -0.0015203239    1.3732513    182.46019    182.49983     1.657896 
   44000       176000    9820.6631   -36639.076    274.52953  0.080819677   -26818.413    2136.3257     7.405804 -0.058327111  -0.01252915    7.4060443    182.38019    182.59219    2.1116301 
   44200       176800    9648.1795   -36446.509    269.70788   0.00767949    -26798.33    2117.8596    4.4855353  -0.03433641 -0.0069395762    4.4856721    182.30019    182.42875    2.4806009 
   44400       177600    9796.4152   -36492.689     273.8517  0.029030826   -26696.274    2016.8202    9.5511803 -0.064376278 -0.025936735    9.5514325    182.22019    182.49349    3.0746012 
   44600       178400     9781.874   -36317.942    273.44521  0.043811289   -26536.068    1859.3613    5.2032265 -0.034684951 -0.016933946    5.2033697    182.14019    182.28926      3.69724 
   44800       179200    9802.2703    -36380.81    274.01538  0.005481357    -26578.54    1903.9484    3.9678467 -0.030244744 -0.0076754117    3.9679693    182.06019    182.17396    4.1311538 
   45000       180000    9919.4239   -36417.485    277.29032  0.086002691   -26498.061    1821.7785   0.89995902 -0.0061883895 -0.0018583446   0.89998221    181.98019    182.00631    4.3898654 
   45200       180800    9776.0951   -36534.182    273.28367  0.062892706   -26758.087    2079.8574    3.2263176 -0.022055128 -0.0095216884     3.226407    181.90019    181.99277    4.6081258 
   45400       181600    9682.3827   -36385.276    270.66401  0.030800693   -26702.894    2023.9534    6.9766715  -0.04890093 -0.019809017     6.976871    181.82019    182.01993     5.001812 
   45600       182400    9833.6478   -36314.246    274.89251 -0.033991738   -26480.598    1804.2424    6.3884334 -0.046872316 -0.015927131    6.3886252    181.74019    181.92312    5.5415448 
   45800       183200    9921.3117   -36344.401    277.34309 -0.090419584    -26423.09    1748.7923    1.2110496 -0.008245622 -0.0030410358    1.2110815    181.66019    181.69519    5.8585398 
   46000       184000    9701.0327   -36314.691    271.18535 -0.025749051   -26613.658    1940.2274     1.789415 -0.012470192 -0.0042001407    1.7894634    181.58019    181.63172    5.9348216 
   46200       184800    9791.4096   -36374.909    273.71178 -0.036259104   -26583.499    1907.9911   -1.5479104  0.010920042 0.0037041423   -1.5479533    181.50019    181.45636    5.9446858 
   46400       185600     9842.847   -36265.978    275.14967  0.032115798   -26423.131    1746.2909   -6.0067186  0.040886505  0.014960872   -6.0068764    181.42019    181.24897    5.6374707 
   46600       186400    9818.4211   -36442.513    274.46686  0.079136171   -26624.092    1946.7432    -3.304985  0.021074874 0.0059111881   -3.3050575    181.34019    181.24616    5.1896011 
   46800       187200    9888.3386   -36420.879    276.42135 -0.0052695726    -26532.54    1856.5642   -4.7986802  0.033486229 0.0064517167   -4.7988014    181.26019    181.12348    4.8550603 
   47000       188000    9806.0063   -36452.784    274.11981  -0.15531599   -26646.778    1970.7362   -2.0221432  0.016255253 0.0033412122   -2.0222113    181.18019    181.12281    4.4943931 
   47200       188800    9893.3306   -36392.012     276.5609 0.0086227446   -26498.681    1822.7871   -4.2539613  0.033575039 0.0082186041   -4.2541018    181.10019    180.97905    4.2853106 
   47400       189600    9961.5764   -36331.484    278.46866  0.027019887   -26369.907     1691.099   -5.3332963   0.03849835  0.008721685   -5.3334423    181.02019    180.86821    3.8919658 
   47600       190400    9795.3936   -36483.714    273.82315 -0.046256506   -26688.321    2007.4084    -7.469721  0.056080513 0.0099381721   -7.4699381    180.94019    180.72716    3.4918155 
   47800       191200    9808.1722   -36443.669    274.18036 0.0049634034   -26635.497    1952.5344   -4.3521485  0.028311595 0.0077565867   -4.3522474    180.86019    180.73624    3.0872275 
   48000       192000    9776.3456   -36667.129    273.29067   0.10621714   -26890.783    2207.8666   -4.8412976  0.028859536 0.0079044873   -4.8413901    180.78019    180.64227    2.7361357 
   48200       192800     9727.344   -36452.912    271.92087 -0.091787277   -26725.568    2043.8401   -2.8343262  0.017631167 0.0045611429   -2.8343847    180.70019    180.61961    2.2489368 
   48400       193600    9792.2242   -36493.413    273.73455 -0.078090888   -26701.189    2021.4521 -0.062380294 0.00037257448 6.5315787e-05 -0.062381441    180.62019    180.61881    2.0865301 
   48600       194400    9869.9541   -36401.432    275.90743 -0.019856727   -26531.478    1852.2441            0            0            0            0    180.54019     180.5415     2.103612 
   48800       195200    9741.7528    -36268.41    272.32365  0.058041832   -26526.657    1847.5073   -1.2620896  0.009052661 0.0012735779   -1.2621227    180.46019    180.42453    1.9802915 
   49000       196000    9950.2232   -36375.465    278.15129   0.03416334   -26425.242     1745.923    2.3869764 -0.016870691 -0.0019470544    2.3870368    180.38019    180.44879    2.1454811 
   49200       196800    9953.2023    -36424.14    278.23457  -0.10586873   -26470.937    1791.0816   -2.0252304   0.01576258 0.0017374639   -2.0252924    180.30019    180.24273    2.2336498 
   49400       197600    9947.5413   -36461.731    278.07632 -0.034857615    -26514.19    1835.4739    2.2075913 -0.017032774 -0.001994967    2.2076579    180.22019    180.28367     2.368575 
   49600       198400    9816.6427   -36506.672    274.41715 -0.0064707883    -26690.03    2010.2456    2.1962317 -0.016033135 -0.0030287801    2.1962923    180.14019    180.20334    2.5678451 
   49800       199200     9886.199   -36438.312    276.36154  0.044286983   -26552.113    1873.3248    2.6163147 -0.020130903 -0.0032513435    2.6163942    180.06019    180.13535    2.7101664 
   50000       200000    9867.1909   -36203.097    275.83019  0.035857992   -26335.907    1658.3244    7.2435216 -0.057657448  -0.01347549    7.2437636    179.98019    180.18756    3.0770069 
   50200       200800    9680.7586   -36319.272    270.61861 -0.098936155   -26638.514    1961.1694     6.032466 -0.050184122 -0.0086109039    6.0326808    179.90019    180.07295    3.6127876 
   50400       201600    9903.2203   -36430.939    276.83736 -0.070856797   -26527.719    1848.2665    7.3571877 -0.050535065 -0.017267224    7.3573815    179.82019     180.0308    4.0960481 
   50600       202400    9734.2708   -36432.705     272.1145   0.14077671   -26698.434    2016.4736    6.9014956 -0.048996566 -0.017203113     6.901691    179.74019    179.93778    4.7195296 
   50800       203200    9710.5287   -36557.337    271.45081 0.0076631159   -26846.809     2168.403    1.3102011 -0.0096783113 -0.0026417161    1.3102395    179.66019    179.69803     5.063436 
   51000       204000    9857.5822   -36284.077    275.56158  -0.12295292   -26426.495    1753.4742    2.1016225 -0.014588781 -0.0029282599    2.1016752    179.58019    179.64064    5.2225355 
   51200       204800    9769.8997    -36320.41    273.11048 -0.091498472   -26550.511    1879.6381    1.2537228 -0.0088647128 -0.00087243176    1.2537544    179.50019    179.53641    5.4004814 
   51400       205600    9817.9677   -36489.364    274.45419 -0.024494619   -26671.396    1997.6352   -4.3808976  0.036191137    0.0024446   -4.3810478    179.42019    179.29542    5.3661131 
   51600       206400    9807.9279   -36505.627    274.17353  0.031774021   -26697.699    2018.3453   -3.6396571  0.031731851 0.0016730708   -3.6397958    179.34019     179.2366    5.1283075 
   51800       207200     9906.458   -36527.399    276.92787  0.046383962   -26620.941    1939.7752   -3.7028331  0.032491335 0.0036008216   -3.7029774    179.26019    179.15479    4.9294597 
   52000       208000    9817.1456    -36493.11    274.43121  0.098296337   -26675.964    1996.1058  -0.82126723 0.0071041398  0.001038778  -0.82129861    179.18019    179.15713    4.7779219 
   52200       208800    9734.3084   -36233.074    272.11555  -0.10127649   -26498.766    1824.4047     1.709796 -0.015341216 -0.0024067105    1.7098665    179.10019    179.14944    4.7616549 
   52400       209600    9682.2211   -36247.171    270.65949  -0.12953454    -26564.95    1893.8733   -1.5797423  0.013940471  0.002562697   -1.5798059    179.02019    178.97545    4.7506929 
   52600       210400    9722.6171   -36346.198    271.78873  -0.06447191   -26623.581    1949.1104    2.6258129 -0.022284732 -0.0045622486    2.6259114    178.94019    179.01562    4.7860971 
   52800       211200    9859.5782   -36518.039    275.61738  0.078202969   -26658.461    1978.7963   -3.7269126  0.035564753  0.004754231   -3.7270854    178.86019     178.7541    4.7542406 
   53000       212000    9843.9454    -36602.27    275.18037    0.1233206   -26758.325    2075.7267    -1.694106  0.015093798 0.0014750941   -1.6941739    178.78019    178.73219    4.5497714 
   53200       212800    9807.5111    -36453.72    274.16188  0.047364372   -26646.209       1967.1   -2.0446217  0.019766462 0.0030045923   -2.0447195    178.70019    178.64217    4.4802936 
   53400       213600    9875.1269   -36344.388    276.05203  -0.10140105   -26469.262     1793.869   -1.2978238  0.012817289 0.00067529989   -1.2978873    178.62019    178.58351    4.2162964 
   53600       214400    9783.7357   -36292.375    273.49726 -0.091647166   -26508.639    1834.2859   -1.6635957  0.017692336 0.0021452765   -1.6636911    178.54019    178.49306    4.0425638 
   53800       215200    9843.4493   -36412.292    275.16651  0.031620463   -26568.842     1891.001    1.7166908 -0.018512732 -0.0023089697    1.7167922    178.46019    178.50964    3.9988167 
   54000       216000    9948.1013   -36456.033    278.09198   0.13495078   -26507.932    1827.7172    5.8684923 -0.058710033 -0.0070206228    5.8687902    178.38019    178.54827     4.371164 
   54200       216800     9889.623   -36500.733    276.45726  0.033464315    -26611.11    1931.9128     3.234911 -0.032451691 -0.0059536304    3.2350793    178.30019    178.39302    4.6825813 
   54400       217600       9765.6   -36352.505    272.99029 -0.083154026   -26586.905    1911.6024    1.8956553 -0.018169659 -0.001967617    1.8957434    178.22019    178.27476    4.9382503 
   54600       218400    9696.2251   -36436.497    271.05096 -0.084925828   -26740.272    2064.3825  -0.99699802 0.0099632926 0.00039657296  -0.99704788    178.14019     178.1121     4.843674 
   54800       219200     9824.529   -36518.865    274.63761   0.11368238   -26694.336    2015.4163   -1.5158643  0.014273671 0.0010757872   -1.5159319    178.06019    178.01728    4.7868903 
   55000       220000    9809.2551    -36651.68    274.21063  0.070813816   -26842.425     2161.444   -4.6407286  0.042626033 -0.00069775722   -4.6409244    177.98019    177.84799    4.5851051 
   55200       220800    9937.3826   -36486.868    277.79234  0.042002998   -26549.486    1869.7325   -8.3892472  0.083081494 0.0066328443   -8.3896612    177.90019    177.66089     3.890875 
   55400       221600    9796.7593   -36498.784    273.86132  -0.10091936   -26702.025    2026.0359   -5.3707539  0.050203453 0.0010277919   -5.3709886    177.82019    177.66713    3.4177759 
   55600       222400    9761.8486    -36393.16    272.88542 -0.039231743   -26631.311    1954.7709   -6.8672821   0.06909452  0.001319341   -6.8676298    177.74019    177.54437    2.8913575 
   55800       223200    9854.0555   -36422.521    275.46299  0.094491541   -26568.466    1890.1535   -2.7381252  0.025100102 0.0025478168   -2.7382414    177.66019    177.58236    2.4677796 
   56000       224000    9919.8631   -36471.484     277.3026  0.029864805   -26551.621    1870.7943   -2.3649079  0.022626368 0.0016788597   -2.3650167    177.58019    177.51302     2.348341 
   56200       224800    9877.9961    -36486.28    276.13224 -0.027083895   -26608.284    1927.0043  -0.94426239 0.0085430287 0.00054874082  -0.94430119    177.50019    177.47361    2.1220848 
   56400       225600    9851.6988   -36488.304    275.39712 -0.020299421   -26636.605    1955.7172    1.2658063 -0.010563779 -0.0013695873    1.2658511    177.42019    177.45676     2.132735 
   56600       226400    9963.4397   -36402.638    278.52075   0.09487074   -26439.199    1758.4158    5.2479757 -0.048258575 -0.0082830753    5.2482041    177.34019    177.49054    2.3189487 
   56800       227200    9849.0717   -36406.952    275.32368  0.063283573    -26557.88    1877.7141     5.003446 -0.046230484 -0.0023949202    5.0036601    177.26019    177.40355    2.6640686 
   57000       228000    9790.7324   -36470.012    273.69284  0.023217509    -26679.28    1999.8896    6.1386745 -0.057000096 -0.0031802286      6.13894    177.18019    177.35599    3.0919675 
   57200       228800    9998.7074   -36413.364    279.50663  0.011948755   -26414.656    1735.2414     7.102252 -0.066228675 -0.0048839372    7.1025624    177.10019    177.30352     3.617504 
   57400       229600    9888.0713   -36687.011    276.41388 -0.078069844    -26798.94    2119.5894    4.6369262 -0.046307668 -0.0024634681     4.637158    177.02019    177.15308    4.0122309 
   57600       230400    9732.9146   -36587.312    272.07659  0.037023859   -26854.397    2173.6505   0.66000421 -0.0064319495 -0.0005219026   0.66003576    176.94019    176.95945    4.2478411 
   57800       231200    9996.6174   -36588.667    279.44821  0.089306985    -26592.05    1911.8556    -6.442887  0.068050149 0.0072294149   -6.4432504    176.86019     176.6765    4.0788358 
   58000       232000    9771.9769   -36445.953    273.16855  -0.11795332   -26673.976    1995.8834  -0.89198458 0.0092352546 0.00096167228  -0.89203291    176.78019     176.7551    3.8474432 
   58200       232800    9894.6798   -36605.038    276.59862 -0.081657268   -26710.358     2032.309   -2.4938648  0.027398456 0.0028393182   -2.4940169    176.70019    176.62933    3.8010111 
   58400       233600     9805.437   -36582.308     274.1039 -0.018937005   -26776.871    2099.0994   0.27134696 -0.0029033209 -0.00023147408   0.27136259    176.62019    176.62834    3.7623269 
   58600       234400    9959.1034   -36604.085    278.39953  -0.01824081   -26644.982    1965.4693  0.056705839 -0.00059792781 -9.669146e-05  0.056709074    176.54019    176.54221    3.7191608 
   58800       235200    9910.4266    -36534.13    277.03881  0.060586726   -26623.704    1943.3515   0.74821417 -0.0075430899 -0.00085464741   0.74825268    176.46019    176.48197    3.7483155 
   59000       236000    9817.2631   -36541.898    274.43449  0.014694409   -26724.635    2045.3561    1.4079755 -0.013361531 -0.0007712128    1.4080392    176.38019    176.42082    3.8173949 
   59200       236800    9984.1591   -36540.441    279.09995   0.14819528   -26556.282    1875.9371   -4.5578304  0.042634771 0.0035747529   -4.5580312    176.30019    176.17036    3.7078861 
   59400       237600    9779.6538   -36438.272    273.38315 -0.054490143   -26658.618    1979.5282   -2.5606315  0.025432867 0.00069360352   -2.5607579    176.22019    176.14743    3.4134409 
   59600       238400    9832.2507   -36530.987    274.85346  -0.10759873   -26698.736    2021.0171   -3.7233387  0.039839769 -0.001526086   -3.7235521    176.14019     176.0342    3.2439289 
   59800       239200    9864.8003   -36519.123    275.76336  0.085274939   -26654.323    1973.4931    -3.376873  0.035254526 -0.0032739368   -3.3770586    176.06019     175.9641    2.9126657 
   60000       240000    9839.8485    -36517.73    275.06585   0.10836392   -26677.882    1997.3141   -2.5698574  0.027065603 -0.0012718723   -2.5700002    175.98019    175.90716     2.727062 
   60200       240800    9763.5434   -36680.742    272.93279  -0.11931781   -26917.198    2237.2764   0.80510159 -0.0082171912 0.0003928855   0.80514362    175.90019     175.9236    2.6402017 
   60400       241600    9820.8058   -36649.466    274.53353 -0.012432795    -26828.66    2149.7941   0.88632239 -0.0094744618 -0.00010425218   0.88637303    175.82019    175.84592    2.8398053 
   60600       242400    9847.0351   -36494.904    275.26675  0.049368279   -26647.869    1967.4792    3.8152514 -0.042163249 -0.00064037343    3.8154845    175.74019    175.84961    3.0609967 
   60800       243200    9887.7719   -36605.292    276.40551   0.13345944    -26717.52     2035.285    8.6678686 -0.092834872 -0.0018990159     8.668366    175.66019    175.90826    3.6011892 
   61000       244000    9821.4846   -36853.205     274.5525 -0.0076119552   -27031.721    2350.3903     5.835575 -0.063266217 -0.0019253347    5.8359183    175.58019    175.74733    4.1299649 
   61200       244800    9968.0814   -36589.295    278.65051  0.036229785   -26621.213    1940.3132    8.8269834 -0.097279035 -0.0048682666    8.8275208    175.50019    175.75281    4.6566795 
   61400       245600    9762.5075   -36619.515    272.90384  -0.10022242   -26857.008    2178.3236     7.036647 -0.077343284 -0.0054014614    7.0370741    175.42019    175.62165     5.262663 
   61600       246400    9848.0507   -36695.193    275.29513  0.075298771   -26847.142    2167.2162   0.31469091 -0.0035583352 -0.0002672903   0.31471114    175.34019    175.34958    5.4643431 
   61800       247200    9890.0801    -36683.18    276.47004  0.029441174     -26793.1    2112.5557  -0.74763447 0.0081233386 0.00014536456  -0.74767862    175.26019    175.23923    5.5533402 
   62000       248000    9839.0988    -36785.73    275.04489 -9.3637718e-05   -26946.631    2267.3973    2.0410414 -0.021740306 -0.0014484821    2.0411577    175.18019    175.23891    5.5741092 
   62200       248800    9838.5084   -36722.607    275.02839  -0.12923614   -26884.098     2205.903   -1.6840387  0.018706904 9.9486987e-05   -1.6841426    175.10019    175.05247    5.6627267 
   62400       249600    9812.9258     -36642.5    274.31324  0.015427906   -26829.574    2150.9109   -3.4322857  0.035792306 0.0027537248   -3.4324734    175.02019    174.92252    5.3729389 
   62600       250400     9851.463   -36650.751    275.39052 -0.061250268   -26799.288    2119.9734  -0.41796001 0.0042075626 0.00026952416  -0.41798127    174.94019    174.92865    5.3435995 
   62800       251200    9849.0279   -36544.614    275.32245 -0.002534198   -26695.586    2015.7162   -6.1357863  0.062991498 0.0045282649   -6.1361113    174.86019    174.68527    5.1003137 
   63000       252000    9795.2645   -36699.416    273.81953  -0.03865101   -26904.152    2224.5899   -3.5023481  0.037695006 0.0032973181   -3.5025525    174.78019    174.68052    4.6939109 
   63200       252800    9780.2144   -36778.669    273.39882  -0.14894812   -26998.454    2317.4062    -4.232414  0.041041813 0.0051156276   -4.2326161    174.70019    174.57966    4.3906487 
   63400       253600    9921.1109   -36756.843    277.33748 -0.002925787   -26835.732    2152.5434   -4.6049818  0.044387534 0.0064730845   -4.6052002    174.62019    174.48901    4.0062168 
   63600       254400    10093.158    -36846.17    282.14692  0.097985808   -26753.013    2068.8462   -6.7305317  0.066987078 0.0092546319   -6.7308714    174.54019    174.34828    3.5785146 
   63800       255200     9844.149   -36758.504    275.18607    0.1003714   -26914.355    2231.0924   -3.3067062  0.036813803 0.0031783114   -3.3069126    174.46019    174.36611    3.2558148 
   64000       256000    9962.0367   -36610.154    278.48153 -0.0017045029   -26648.117    1965.0192   -2.6488691  0.028755872 0.0051530214   -2.6490302    174.38019    174.30491    2.9911965 
   64200       256800    9871.0506   -36776.621    275.93808 0.0034879857   -26905.571    2224.3348     2.235207 -0.025319496 -0.0037674045    2.2353536    174.30019    174.36446    3.0242738 
   64400       257600    9819.3707   -36806.049    274.49341 0.0087213831   -26986.678     2304.031  -0.26274528 0.0029984771 0.00042080818  -0.26276273    174.22019    174.21308    3.1193089 
   64600       258400    9782.2034   -36668.441    273.45442 -0.041656494   -26886.237    2202.7159    4.1092388 -0.047874934 -0.0049869079    4.1095207    174.14019    174.25801    3.1910926 
   64800       259200    9912.9024   -36726.248    277.10802  0.017655475   -26813.346    2130.5297   -2.0294101  0.022354211 0.0037155966   -2.0295366    174.06019     174.0026    3.2337688 
   65000       260000    9836.4658   -36828.257    274.97129  0.019942322   -26991.791     2310.296   -1.5746031  0.016340773 0.0025294492   -1.5746899    173.98019     173.9356     3.064625 
   65200       260800    9898.8799   -36654.856    276.71603 -0.059635896   -26755.976    2077.1036    3.1926506 -0.035078285 -0.0058505288    3.1928486    173.90019    173.99182    3.2080845 
   65400       261600    9834.8708   -36700.934     274.9267  -0.08853382   -26866.063    2187.3773    3.3093599 -0.035368032 -0.0075628757    3.3095575    173.82019    173.91515    3.5984207 
   65600       262400    9830.8505   -36814.862    274.81432 0.0037351193   -26984.012    2302.3629    3.0459611 -0.031734979 -0.0058174644     3.046132    173.74019    173.82762    3.8886202 
   65800       263200    9807.7478   -36730.122     274.1685  0.063827191   -26922.374    2240.0271    6.1637308 -0.067426192 -0.006687312    6.1641032    173.66019    173.83671     4.283902 
   66000       264000    9918.9633   -36716.908    277.27745  0.057114801   -26797.945    2118.8139    5.1936951 -0.058674085 -0.0055443959    5.1940295    173.58019    173.72899    4.8476275 
   66200       264800    9741.4451   -36767.343    272.31505 -0.039873166   -27025.898    2348.5041    2.9653239  -0.03434083 -0.0010635661     2.965523    173.50019    173.58532    5.1681479 
   66400       265600    9940.4047   -36836.543    277.87683  -0.05204362   -26896.138    2217.5028   0.90877568 -0.010232262 -0.00055880468   0.90883346    173.42019    173.44656    5.2816623 
   66600       266400    9803.1427   -36900.981    274.03977 0.0074158995   -27097.838    2416.2119   -3.7334631  0.039691368 0.0032863932   -3.7336756    173.34019    173.23392    5.2230762 
   66800       267200    9827.1644   -36802.925    274.71127 -0.0033419508   -26975.761    2292.5817   -4.1228319  0.045070681 0.0056972573   -4.1230822    173.26019    173.14279    4.8538989 
   67000       268000     9913.889   -36750.852     277.1356  0.055852662   -26836.963    2156.2504   -1.2539256  0.014264536 0.0017075474   -1.2540079    173.18019    173.14476    4.6480987 
   67200       268800    9887.9538   -36800.813     276.4106 -0.079213351    -26912.86    2233.6403   -3.8190451  0.043367572 0.0061927707   -3.8192964    173.10019    172.99147    4.6101546 
   67400       269600    9725.1185   -36542.484    271.85865 -0.045429202   -26817.365    2138.2392    -4.652704  0.054153014 0.0073895714    -4.653025    173.02019    172.88765    4.2926993 
   67600       270400    9841.8601   -36721.686    275.12208 0.0010970755   -26879.826    2197.7725   -1.8018457  0.019974195 0.0031897793   -1.8019592    172.94019    172.88911    4.0921906 
   67800       271200    9901.5949   -36856.425    276.79193  0.072278238    -26954.83    2270.4382   -2.7143591  0.027432148 0.0044988583   -2.7145015    172.86019    172.78303     3.852961 
   68000       272000    9710.9084   -36788.092    271.46142 -0.032655968   -27077.184    2394.4387    3.6752127 -0.036628201 -0.0073285306    3.6754025    172.78019     172.8856    3.8659664 
   68200       272800    9856.9472   -36762.158    275.54383 -0.029933112   -26905.211    2225.1719    4.6145599 -0.047850861 -0.010773163    4.6148205    172.70019    172.83244    4.3741505 
   68400       273600    9783.3686   -36706.238    273.48699 -0.034412926   -26922.869     2243.627    2.3336019 -0.023955818 -0.0037400275    2.3337279    172.62019    172.68727    4.6102588 
   68600       274400    9855.5813   -36747.058    275.50565 -0.015796885   -26891.477    2211.6497    1.7154486 -0.017520181 -0.0035374479    1.7155417    172.54019    172.58961    4.7918785 
   68800       275200    9967.3523   -36622.912    278.63013  0.052880903    -26655.56    1974.1102   -4.9950282  0.053970631  0.008670926   -4.9953273    172.46019    172.31787    4.5387701 
   69000       276000      9956.73   -36758.063    278.33319 -0.033655378   -26801.333    2118.4921   -5.4047457  0.063265505 0.0086060367   -5.4051229    172.38019    172.22616    4.0684579 
   69200       276800    9818.4366   -36683.977     274.4673 -0.040470726    -26865.54    2184.2211   -4.1726469    0.0486798 0.0048366619   -4.1729336    172.30019    172.18136    3.7311869 
   69400       277600    9794.6022    -36686.68    273.80102 -0.029920508   -26892.078     2210.897   -3.2080504  0.038795174 0.0049860157   -3.2082889    172.22019    172.12893    3.4419649 
   69600       278400    9916.4171   -36836.634    277.20627  -0.12173656   -26920.217    2238.9611   -4.0822811  0.050002699 0.0071696976   -4.0825936    172.14019    172.02395    3.2207674 
   69800       279200    9844.3085   -36841.618    275.19053  -0.06122744    -26997.31    2313.9228   -2.7075918  0.032119127 0.0047014891   -2.7077863    172.06019    171.98323    2.9323053 
   70000       280000    9822.7329   -36683.285    274.58739   0.11832894   -26860.552    2175.0653    1.1874973 -0.014823897 -0.001899595    1.1875913    171.98019    172.01452    2.8396608 
   70200       280800    9683.1911   -36738.543     270.6866  0.040882685   -27055.351    2370.9404   -1.8531479  0.022474596 0.0021042026   -1.8532854    171.90019    171.84764    2.7751983 
   70400       281600    9845.0509   -36625.417    275.21128 -0.052757021   -26780.366    2098.2876  -0.36482228 0.0045920717 0.00084332747  -0.36485215    171.82019    171.81017    2.6744917 
   70600       282400    9918.2223   -36578.076    277.25673  0.056716434   -26659.854    1978.8429   -1.0811575  0.013622843 0.0021097712   -1.0812454    171.74019     171.7097    2.6238267 
   70800       283200    9806.7049   -36817.544    274.13934 -0.0084557861   -27010.839    2328.4173  -0.81292079  0.010095586 0.0015198639   -0.8129849    171.66019    171.63736    2.5509505 
   71000       284000     9838.784   -36761.961    275.03609  0.047346595   -26923.177    2239.3872   -3.3695306  0.040650982 0.0066365132   -3.3697823    171.58019    171.48431    2.4262877 
   71200       284800    9812.8718   -36834.267    274.31173 -0.024917059   -27021.395    2337.1826   -3.3535771  0.038581883 0.0082198178   -3.3538091    171.50019    171.40477    2.1832359 
   71400       285600    9972.4973   -36821.201    278.77395  -0.06964431   -26848.704    2162.8192   -1.2418098  0.014650404 0.0031009548   -1.2419001    171.42019    171.38511    2.0032097 
   71600       286400    9863.7415   -36853.565    275.73376  0.057325048   -26989.823    2304.2821  -0.10058041 0.0011514535 0.00023587703  -0.10058728    171.34019    171.33772      2.02019 
   71800       287200    9971.5421   -36647.294    278.74725  0.024337589   -26675.752     1991.156     1.624363 -0.019225294 -0.0043762719    1.6244826    171.26019    171.30701     2.015051 
   72000       288000     9816.656   -36788.236    274.41752 -0.062252029    -26971.58     2287.934    3.2102973 -0.037701987 -0.0078205332    3.2105282    171.18019    171.27232    2.2075419 
   72200       288800    9917.8211   -36835.848    277.24552 -0.054654849   -26918.027    2234.0416    6.5575126 -0.077975402 -0.018689721    6.5580028    171.10019    171.28796    2.5246781 
   72400       289600    9899.2069   -36816.499    276.72517  0.081842851   -26917.292    2231.8858    9.5930997  -0.11696704 -0.030856502    9.5938624    171.02019     171.2947    3.0615552 
   72600       290400    9846.1745   -36837.005    275.24269 -0.039976197    -26990.83     2306.563     6.840438 -0.085378927 -0.021262587    6.8410038    170.94019    171.13605    3.7092811 
   72800       291200    9842.1667   -36775.614    275.13065   0.01657723   -26933.448    2251.7521    3.6563226 -0.046053733 -0.011053435    3.6566293    170.86019    170.96507    4.0979828 
   73000       292000    9715.0051   -36721.679    271.57594  -0.11390753   -27006.674    2327.2286    4.2753801 -0.056628535 -0.012449778    4.2757732    170.78019    170.90276      4.43505 
   73200       292800    9904.6958   -36774.158    276.87861  -0.10923142   -26869.463    2188.6002    3.8491818 -0.049837438 -0.011106049    3.8495204    170.70019    170.81058    4.7417024 
   73400       293600    9849.1168   -36646.657    275.32494  0.038817925   -26797.541    2114.3604    6.2997256 -0.080784395 -0.017605412    6.3002681    170.62019     170.8006    5.1844117 
   73600       294400    9815.5792   -36590.131    274.38742  0.024790101   -26774.552    2092.3231    3.2661281 -0.044604594 -0.0065655514    3.2664393    170.54019    170.63392    5.5775942 
   73800       295200    9913.2378   -36789.999     277.1174  0.010953381   -26876.761     2196.322    2.8168126 -0.038129372 -0.0051424721    2.8170753    170.46019    170.54108    5.8581491 
   74000       296000    9721.4619   -36715.691    271.75644  0.076301153   -26994.229    2313.9591     3.481832 -0.046171284 -0.0074615867    3.4821461    170.38019    170.48008    6.1506744 
   74200       296800    10003.608   -36640.199    279.64362 -0.059775176   -26636.591    1956.4456  -0.98661168  0.013239704 0.0017143212    -0.986702    170.30019     170.2724    6.2821745 
   74400       297600     9856.207   -36767.994    275.52314 -0.032460397   -26911.787    2231.3945    0.5487139 -0.007435623 -0.0011522089   0.54876549    170.22019    170.23627    6.1135888 
   74600       298400    9891.7506   -36810.592    276.51674  0.075854846   -26918.841    2237.1848  -0.24624816  0.003177968 0.00037034019  -0.24626894    170.14019    170.13356    6.1806095 
   74800       299200    9910.2805   -36863.533    277.03472 -0.0056469772   -26953.253    2270.7593  -0.43985674 0.0057270351 0.00063627387  -0.43989448    170.06019    170.04802    6.1285224 
   75000       300000     9963.454   -36870.735    278.52115  0.031925215    -26907.28    2225.6001   -2.9949361    0.0397153 0.0038471088   -2.9952019    169.98019    169.89501    5.8958535 
   75200       300800    9874.5814   -36880.695    276.03678 -0.010001844   -27006.114    2324.3996   -1.8887171  0.024920096 0.0043364478   -1.8888865    169.90019    169.84662    5.6300644 
   75400       301600    9904.2468    -36693.05    276.86606   0.11339544   -26788.804    2105.9883   -6.2717783  0.082362305  0.016073072   -6.2723396    169.82019    169.64138     5.263284 
   75600       302400    9862.1625   -36743.569    275.68962 -0.033019359   -26881.406    2199.4117    -4.701251  0.059067568  0.013975632   -4.7016429    169.74019    169.60626    4.7324452 
   75800       303200    9871.6858   -36706.887    275.95584 0.0082504193   -26835.202    2152.7905   -8.4601809   0.10791188  0.023963802   -8.4609031    169.66019    169.41885    4.2962171 
   76000       304000    9850.2864   -36914.271    275.35763  0.018401003   -27063.985    2379.3026   -6.1686437  0.078788303  0.016566598   -6.1691691    169.58019    169.40433    3.7153392 
   76200       304800    9848.4935   -36818.774    275.30751  0.013081424    -26970.28    2284.7834   -6.1354081  0.077586071  0.019132663   -6.1359285    169.50019    169.32528     3.305919 
   76400       305600     9912.045   -36825.919    277.08405   0.11582978   -26913.874    2226.4969   -5.6627347  0.070726211  0.015144141   -5.6631966    169.42019    169.25879    2.8626259 
   76600       306400    9881.4447   -36798.971    276.22864  0.013141601   -26917.526    2229.8582   -7.0502829  0.091528064 0.0097652638   -7.0508837    169.34019    169.13914    2.3245059 
   76800       307200    9744.5429   -36755.731    272.40165  0.096676535   -27011.188    2324.4094   -5.5076985  0.068350654  0.010948822   -5.5081335    169.26019    169.10322    1.8595179 
   77000       308000    9854.6199   -36846.689    275.47877 -0.080460402   -26992.069    2307.0484   -3.0431841  0.037888875 0.0041779907   -3.0434228    169.18019    169.09364    1.5526722 
   77200       308800     9848.179   -36886.926    275.29872  -0.01985233   -27038.747    2353.1497   -2.7284649   0.03760061 0.0040585247   -2.7287269    169.10019    169.02263    1.3687221 
   77400       309600    9763.8841   -36913.326    272.94232 -0.051213393   -27149.442    2462.4026  -0.70062434 0.0094374564 0.0015850129  -0.70068969    169.02019    169.00057    1.1403795 
   77600       310400     9910.184   -36976.614    277.03203   0.11649647    -27066.43    2377.5652    2.8466789 -0.039176768 -0.0064907169    2.8469559    168.94019    169.02193      1.19677 
   77800       311200    9861.3068   -36823.483     275.6657  0.098581882   -26962.176    2274.8449   0.18517082 -0.0025992887 -0.00044793934    0.1851896    168.86019    168.86588    1.2389827 
   78000       312000    9844.6326   -36853.283    275.19959 -0.053803129   -27008.651    2323.4432   -1.6975296  0.024272328 0.0030278647   -1.6977059    168.78019    168.73209    1.2418879 
   78200       312800    9820.9284   -36716.969    274.53695 -0.017152665   -26896.041    2212.4847    3.1991059 -0.043278035 -0.0074825818    3.1994074    168.70019      168.792    1.3307015 
   78400       313600    9893.4838   -36807.291    276.56519  0.048451016   -26913.807    2229.3032    2.5748848 -0.035068275 -0.007105564    2.5751334    168.62019    168.69417    1.5570205 
   78600       314400    9696.5767   -36760.586    271.06079  0.066322938   -27064.009    2375.7717    8.4607245  -0.10981337 -0.021449218    8.4614643    168.54019    168.78235    2.0489754 
   78800       315200    9924.4641   -36832.705    277.43122   0.19129106   -26908.241    2220.6581    7.8093421  -0.10163028 -0.019539424    7.8100279    168.46019    168.68374     2.701312 
   79000       316000    9856.2874   -36969.995    275.52539  0.060979635   -27113.708    2427.0276    10.237249  -0.14101586  -0.02273016    10.238245    168.38019    168.67311    3.4077224 
   79200       316800    9918.8742   -36796.239    277.27495  0.084473174   -26877.365    2195.3721    7.2206093 -0.099323713 -0.014194874    7.2213064    168.30019    168.50691    4.1266571 
   79400       317600    9874.9294   -36775.378    276.04651  -0.01257734   -26900.449    2221.1626    5.2442403 -0.072157084 -0.014803472    5.2447576    168.22019    168.37044    4.5981459 
   79600       318400     9864.569    -36814.65    275.75689  0.016907858   -26950.081    2269.9213    1.6614861 -0.023882645 -0.0039509233    1.6616624    168.14019    168.18807    4.8789879 
   79800       319200     9826.372   -36992.371    274.68912 -0.031152936   -27165.999    2481.0616    2.6242932 -0.039803207 -0.0048019146    2.6245994    168.06019    168.13558     5.034405 
   80000       320000     9951.179   -36948.152    278.17801   0.14393637   -26996.973    2311.7111    4.4676931 -0.068294711 -0.0097714325    4.4682257    167.98019    168.10826    5.1996246 
   80200       320800    9874.3258    -36912.94    276.02964 -0.012099593   -27038.614    2356.0563   -1.5455665   0.02326911 0.0031302075   -1.5457448    167.90019    167.85643    5.2627903 
   80400       321600    9921.7699   -36694.117     277.3559 -0.088591408   -26772.348    2091.7243     4.426246 -0.066573679 -0.010969473    4.4267602    167.82019    167.94707    5.2421268 
   80600       322400    9777.7636   -36818.746    273.33031  0.054768379   -27040.983    2360.4139    3.3317032  -0.05134559 -0.0067463694    3.3321057    167.74019    167.83579    5.5050677 
   80800       323200    9830.5749    -36983.64    274.80661 -0.0031443686   -27153.065    2470.0514    4.4969334 -0.067457121 -0.010988432    4.4974527    167.66019    167.78909    5.7674315 
   81000       324000    9778.9319   -36981.315    273.36297  0.022757861   -27202.383    2517.8905    5.5520081 -0.080239373 -0.014734617    5.5526075    167.58019    167.73924    6.2059399 
   81200       324800     9762.184   -36854.735     272.8948 0.00042771941   -27092.551    2410.4787     2.206563 -0.030311908 -0.0053702613    2.2067777    167.50019    167.56364    6.6273223 
   81400       325600     9817.655   -36886.937    274.44545  -0.14193738   -27069.282    2389.9791   -6.3658865  0.092597392  0.014899643   -6.3665773    167.42019    167.23869    6.5257263 
   81600       326400    9871.6731   -36755.747    275.95548  -0.14812748   -26884.074    2206.0386   -5.5580013   0.08018979  0.012780776   -5.5585945    167.34019    167.18177    6.0584996 
   81800       327200    9789.0354   -36914.085    273.64541 -0.0027878201    -27125.05    2443.3605    -8.207143   0.11545637  0.013806247   -8.2079667    167.26019    167.02608    5.5797815 
   82000       328000    9798.3686   -37030.193    273.90631  0.063942553   -27231.825     2544.343   -10.378913   0.14319119  0.014280091   -10.379911    167.18019    166.88402    4.7748498 
   82200       328800    9825.4224   -36950.959    274.66258   0.11386983   -27125.536    2436.4771   -9.2734827   0.12586258  0.016560791   -9.2743516    167.10019    166.83561    4.0379393 
   82400       329600    9996.8926   -36812.578     279.4559  0.027835397   -26815.685     2129.736   -7.2024583  0.099752806   0.01546618   -7.2031656    167.02019    166.81479    3.3092693 
   82600       330400    9937.1582   -36780.099    277.78607 -0.052660517   -26842.941    2159.8601   -4.1808401   0.05880258 0.0084386058   -4.1812621    166.94019    166.82113    2.8011285 
   82800       331200    9898.3002    -36905.73    276.69983 -0.039587644   -27007.429    2324.1653    1.8932296 -0.026146333 -0.004251756    1.8934149    166.86019    166.91469    2.6223532 
   83000       332000    9799.1281   -36915.523    273.92754  0.048787154   -27116.395    2431.3759   -1.3751839  0.018760877 0.0027328601   -1.3753145    166.78019     166.7413    2.7111545 
   83200       332800    9790.7393   -37014.629    273.69304  0.043652927   -27223.889    2537.1787   0.98314869 -0.012912275 -0.002674588   0.98323712    166.70019    166.72868    2.7025006 
   83400       333600    9828.7294   -37062.736    274.75502 -0.024260061   -27234.007    2546.4108   0.80549289 -0.010635624 -0.0022016429   0.80556611    166.62019    166.64361    2.8563754 
   83600       334400    9837.6461   -36949.536    275.00428 -0.047206274    -27111.89    2426.0296    3.6487671 -0.049888443 -0.0078313371    3.6491165    166.54019    166.64485     2.954399 
   83800       335200     9758.119    -36717.56    272.78116 -0.016766973   -26959.441    2275.3201    3.7773551 -0.053406059 -0.011173367    3.7777491    166.46019    166.56853    3.2291518 
   84000       336000    9824.7508   -36930.773     274.6438  -0.11465519   -27106.023    2421.9024    5.9566948 -0.087547727 -0.013647925    5.9573538    166.38019     166.5508     3.673995 
   84200       336800    9931.6771     -36848.3    277.63285 -0.050055479   -26916.623    2230.9723    7.0235644  -0.10686382 -0.010328976    7.0243849    166.30019    166.50129     4.109552 
   84400       337600    9803.5568   -36908.495    274.05134  0.064770106   -27104.939    2420.2107    7.3720503  -0.10953677 -0.014915147    7.3728791    166.22019    166.43125    4.7454313 
   84600       338400    9917.7595   -36940.803    277.24379 0.0016833923   -27023.043     2339.489    3.8859411 -0.057257308 -0.010366356    3.8863767    166.14019    166.25163    5.1903107 
   84800       339200    9701.3678   -36807.061    271.19472  -0.10750787   -27105.693    2423.1827    4.7342077 -0.069529228 -0.017751253    4.7347515    166.06019    166.19587    5.5638102 
   85000       340000    9892.6334    -36805.25    276.54141  0.039164828   -26912.617    2231.9825    1.3591634 -0.019933671 -0.0045714994    1.3593173    165.98019    166.01943    5.8198434 
   85200       340800    9914.8862   -36902.074    277.16348 -0.023098547   -26987.187    2305.5803  -0.29240755 0.0042305953 0.00083885845  -0.29243935    165.90019    165.89224    5.9276985 
   85400       341600    9754.0778   -36845.521    272.66819 -0.021901621   -27091.443    2407.7551   -1.3908222  0.019234408 0.0034998175   -1.3909596    165.82019    165.78085    5.9111666 
   85600       342400    9867.9034   -36803.879     275.8501  0.095139879   -26935.976    2252.1891    -1.294269  0.017418313 0.0032381449   -1.2943902    165.74019    165.70361    5.8742195 
   85800       343200    9753.6324   -36866.991    272.65574 -0.053464291   -27113.359    2429.3071   -7.0375137  0.099917055  0.018926598   -7.0382484    165.66019     165.4595    5.5713489 
   86000       344000    9848.0353   -36843.135    275.29471 -0.010403711   -26995.099     2313.037   -2.6646581  0.038246347 0.0062619928   -2.6649399    165.58019    165.50445    5.1304715 
   86200       344800    9776.6796    -36820.43    273.30001  0.005558478    -27043.75    2360.6947    0.9349721 -0.013118839 -0.0030872445   0.93506923    165.50019    165.52731    5.1251926 
   86400       345600    9897.5564   -36720.168    276.67903   0.01796498   -26822.611    2139.0788   -1.8930526  0.026538161 0.0068916874   -1.8932511    165.42019     165.3665    5.0241433 
   86600       346400    9899.3855   -36846.021    276.73016 0.0092067304   -26946.635    2264.4546  -0.85713265  0.012528259 0.0029058322  -0.85722913    165.34019     165.3161     4.846176 
   86800       347200    9766.4802   -36868.931    273.01489 -0.070272952   -27102.451    2420.3007   -2.8623142  0.041366584  0.012212633   -2.8626391    165.26019     165.1788    4.6993391 
   87000       348000    9817.9478   -36910.157    274.45363 0.00024491732    -27092.21    2410.1995   0.94618122 -0.013451344 -0.0042039481   0.94628616    165.18019    165.20763     4.568639 
   87200       348800    9863.9961   -36767.945    275.74088  0.038540228   -26903.948    2220.0765   -1.9845565  0.028957415 0.0071565252   -1.9847806    165.10019    165.04388    4.4034861 
   87400       349600     9930.608   -36900.068    277.60296 -0.011025808    -26969.46     2284.563   -3.2099191  0.048380703  0.011807703   -3.2103054    165.02019    164.92887    4.1474286 
   87600       350400    9889.5966   -36905.484    276.45652  0.051899587   -27015.888    2331.5847   -6.1573404  0.093904576  0.021563887   -6.1580942    164.94019    164.76465    3.9110884 
   87800       351200    9735.8655   -36879.373    272.15908 -0.088920948   -27143.507    2459.9704    -6.300504   0.09379779  0.020855164   -6.3012366    164.86019    164.68056    3.3056272 
   88000       352000    9812.3995   -36910.319    274.29853  0.024472106   -27097.919    2413.8678   -4.6834224  0.070760119  0.012948375   -4.6839749    164.78019    164.64676    2.8786143 
   88200       352800    9793.4629   -36915.116    273.76917  0.068875544   -27121.653    2435.4609   -6.7179954  0.099614825  0.016769928   -6.7187548    164.70019    164.50863    2.4033685 
   88400       353600    9839.6944   -36822.012    275.06154 -0.035021062   -26982.317    2295.0076   -3.4373981  0.051646452 0.0074092054   -3.4377941    164.62019    164.52237    1.8247729 
   88600       354400    9898.8935   -36901.972    276.71641 -0.035093177   -27003.079    2316.4155    1.2429841 -0.019106327 -0.0029755283    1.2431345    164.54019    164.57611    1.7320626 
   88800       355200    9722.7385   -36893.482    271.79212  -0.04354187   -27170.743    2483.5344    1.8342523  -0.02831698 -0.0046971578    1.8344768    164.46019    164.51301    1.9086436 
   89000       356000      9880.33   -36934.183    276.19748  -0.07897357   -27053.853    2367.1243    1.4389024 -0.021427955 -0.0047212731    1.4390697    164.38019    164.42171    1.9038506 
   89200       356800    9885.7421   -36909.707    276.34877  0.022353056   -27023.964    2336.2573    5.9789171 -0.089228745 -0.017396668    5.9796082    164.30019    164.47144    2.3675935 
   89400       357600    9784.0381   -36984.466    273.50571  0.024902161   -27200.428    2513.5957    3.9864547 -0.060869931 -0.012048011    3.9869376    164.22019     164.3345    2.8471823 
   89600       358400    9769.8157   -37067.373    273.10813   0.03351742   -27297.557    2611.5388    4.7972889  -0.07046832 -0.016997935    4.7978366    164.14019    164.27767    3.3051212 
   89800       359200    9728.9912   -36995.712    271.96691 -0.065932122   -27266.721    2581.3478   0.62604054 -0.0087572524 -0.0023018727   0.62610602    164.06019    164.07848    3.5359608 
   90000       360000    9758.4796   -36898.196    272.79124 -0.082898349   -27139.716    2454.4864    1.2034943 -0.017286092 -0.0043202876    1.2036262    163.98019    164.01498     3.753713 
   90200       360800    9820.8174   -36971.708    274.53385  0.020314807   -27150.891    2466.2913  -0.46436829 0.0066828333 0.0016253682  -0.46441922    163.90019    163.88732    3.8505154 
   90400       361600    9797.6459   -36936.695    273.88611 -0.0021547875   -27139.049    2453.9175   -1.0652881  0.015284569 0.0037030054   -1.0654041    163.82019    163.79015    3.8748362 
   90600       362400    9698.4185   -36848.513    271.11228   -0.1409499   -27150.094    2466.0624    2.4707008 -0.036590536 -0.0071316062    2.4709821    163.74019    163.81119    3.8553946 
   90800       363200    9825.4253    -37047.59    274.66266 -0.064731162   -27222.165    2538.5871  -0.40548005 0.0061038454 0.0010321759  -0.40552731    163.66019    163.64901    3.9667054 
   91000       364000    9725.2249   -36985.836    271.86163  0.015534237   -27260.611     2575.817  -0.69294678  0.010714303 0.0014686673  -0.69303116    163.58019    163.56079    3.8625577 
   91200       364800    9828.6053   -36851.624    274.75155  0.061919905   -27023.019    2336.5419    3.1138531 -0.046036103 -0.0069271721     3.114201    163.50019    163.58957    3.9400682 
   91400       365600    9862.4057   -36762.268    275.69642  0.023787772   -26899.862    2215.7075  -0.85930622  0.012953182 0.0017052039  -0.85940553    163.42019    163.39604    4.0718888 
   91600       366400    9927.2831   -36876.032    277.51002 -0.014782234   -26948.749    2266.1957   -1.7425421  0.026074565 0.0038412732   -1.7427414    163.34019     163.2908    3.9151885 
   91800       367200    9849.7476   -36922.142    275.34257 -0.016894091   -27072.394    2389.8477    2.4990982 -0.037392255 -0.0044605057     2.499382    163.26019      163.332    4.0541493 
   92000       368000    9812.6491    -36964.14    274.30551  0.087700642   -27151.491    2467.1694  -0.12606926 0.0017996721 0.00037560255  -0.12608266    163.18019    163.17699    4.2438484 
   92200       368800    9772.1337   -36991.122    273.17293   0.21902195   -27218.988    2531.6898    1.5927454 -0.023207398 -0.0041040797    1.5929197    163.10019     163.1461    4.3875162 
   92400       369600    9818.4171   -37081.178    274.46675  0.034533539   -27262.761    2576.5951    4.2070561 -0.063392176 -0.012531983    4.2075523    163.02019    163.14081    4.7372101 
   92600       370400     9773.451   -37001.133    273.20976 -0.083428132   -27227.682    2544.2565    7.1363485   -0.1062866 -0.023256405    7.1371778    162.94019    163.14451    5.2203181 
   92800       371200    9816.6771   -37016.038    274.41811  0.027269658   -27199.361    2515.4151    4.9180712 -0.071775734 -0.017471079     4.918626    162.86019    163.00112    5.7439417 
   93000       372000    9780.2402   -36996.469    273.39954  0.012681355   -27216.229    2531.9981    5.7622389 -0.086736594 -0.019972724    5.7629263    162.78019    162.94525    6.1836077 
   93200       372800    9880.3569   -37020.549    276.19823 -0.032738824   -27140.192    2457.3583   -1.2123225   0.01906364 0.0043573738   -1.2124802    162.70019    162.66595    6.3392954 
   93400       373600    9746.4769   -36852.343    272.45571 -0.020381917   -27105.866    2424.5175   0.21004474 -0.0032572516 -0.00059710928   0.21007085    162.62019    162.62659    6.3315381 
   93600       374400     9834.225   -36973.217    274.90865 -0.025145628   -27138.992    2457.3904   -2.2909719  0.035736701 0.0064269723   -2.2912597    162.54019    162.47513    6.2272793 
   93800       375200    9727.4151   -37053.957    271.92285  0.023739086   -27326.542    2643.1853   -3.4501457  0.054967542 0.0094157135   -3.4505964    162.46019      162.362    5.9375462 
   94000       376000    9813.9582   -36966.379    274.34211  0.035700992   -27152.421    2466.3943   -5.5012556  0.090617149   0.01727592    -5.502029    162.38019    162.22339    5.5300078 
   94200       376800    9947.7098   -37065.097    278.08103  0.091850534   -27117.387    2429.6528   -6.7253543   0.10848443  0.025098061   -6.7262761    162.30019    162.10841    5.0201718 
   94400       377600    9990.2866   -37013.244    279.27124  0.019238445   -27022.958     2335.316   -8.7036955   0.14486907  0.018309003   -8.7049203    162.22019    161.97188    4.4284922 
   94600       378400    9852.0181   -37036.323    275.40604  -0.05280761   -27184.305    2499.9532   -2.7207079  0.044109615 0.0098262433   -2.7210832    162.14019    162.06285    3.9255781 
   94800       379200    10000.674    -36906.37    279.56162 -0.027258893   -26905.695    2222.5625   -5.2239087  0.085026737  0.018154334   -5.2246321    162.06019    161.91132    3.7216907 
   95000       380000    9880.7568   -36919.735    276.20941 -0.058098903   -27038.978    2353.8286   -6.9368027   0.10790382  0.017041261   -6.9376628    161.98019    161.78237      3.21353 
   95200       380800    9865.4716   -37049.865    275.78213   0.03373043   -27184.393     2497.756   -4.3195588  0.069355663  0.016960577   -4.3201489    161.90019    161.77716    2.7927732 
   95400       381600    9979.2029   -37042.119     278.9614 0.0020625426   -27062.916    2375.2681  -0.69347486  0.011437527  0.002484195  -0.69357362    161.82019    161.80078    2.5902759 
   95600       382400    9928.0508   -36973.806    277.53148  0.036445581   -27045.755    2358.2772   -1.1538103  0.018814931 0.0039939635   -1.1539706    161.74019    161.70762    2.4575273 
   95800       383200    9977.5431   -36949.771      278.915 -0.042373277   -26972.228    2286.2138   -2.3728809  0.040136704 0.0081679338   -2.3732344    161.66019    161.59278    2.3606677 
   96000       384000    9896.4009   -36857.521    276.64673 -0.022805212    -26961.12    2276.0795   -2.2597241  0.038494235 0.0064762393   -2.2600613    161.58019    161.51602    2.2350796 
   96200       384800    9876.5467   -36984.463    276.09172  0.056345415   -27107.917    2421.5526   -1.6140871  0.027082657 0.0048407152   -1.6143216    161.50019    161.45447    2.0414137 
   96400       385600    9839.8941   -36906.188    275.06713  0.031701221   -27066.294    2378.8865   0.86613411  -0.01466424 -0.0031923146   0.86626412    161.42019    161.44534    1.8753919 
   96600       386400    9765.2761   -37057.322    272.98123 -0.0033119925   -27292.046    2604.6452    3.0561609 -0.051755767 -0.012028242    3.0566228    161.34019    161.42792    2.0249298 
   96800       387200    10006.142   -37112.376    279.71448  0.053487071   -27106.234    2416.9415  -0.80327687  0.013099889 0.0028638662  -0.80338879    161.26019    161.23764    2.0804338 
   97000       388000    9811.4458   -37012.515    274.27187  0.053999934   -27201.069    2512.9394    1.1286068 -0.018696913 -0.0043292477      1.12877    161.18019    161.21284    2.0610441 
   97200       388800    9795.4394   -37115.888    273.82442  0.023786353   -27320.449    2634.7367    1.3477973 -0.022515539 -0.0047469626    1.3479937    161.10019    161.13911    2.1750343 
   97400       389600    9748.7568   -36938.249    272.51945 -0.065129471   -27189.492    2505.0047  -0.50077897 0.0082875146 0.0018498698  -0.50085095    161.02019    161.00628    2.2674195 
   97600       390400    9821.0498   -36922.356    274.54035 -0.036405936   -27101.306    2414.5176    4.1366161 -0.069126516 -0.016000356    4.1372246    160.94019     161.0588    2.4817489 
   97800       391200    9711.4903   -37260.614    271.47769 -0.013224453   -27549.124    2859.4357    5.1974795 -0.085164598 -0.017944434    5.1982082    160.86019    161.00911    2.8700786 
   98000       392000     9914.769   -37158.303     277.1602   0.13509075   -27243.534     2551.633    3.9325178 -0.063335646 -0.012526936    3.9330477    160.78019    160.89296    3.2523694 
   98200       392800    9755.0405   -37284.695     272.6951  0.020649055   -27529.655    2841.2527    1.7725292 -0.027930513 -0.0052634649    1.7727571    160.70019    160.75124    3.4699342 
   98400       393600    9983.1542   -36924.537    279.07186 0.0062399267   -26941.383    2257.3936    2.5028171 -0.039385839 -0.0077261641    2.5031389    160.62019    160.69211    3.7026319 
   98600       394400     9792.289   -37100.857    273.73636 -0.035905663   -27308.568    2626.6667    1.6231548 -0.026146153  -0.00577386    1.6233756    160.54019    160.58697    3.9414925 
   98800       395200    9906.3724   -37103.075    276.92548 -0.0081835516   -27196.702    2511.7143    2.6156902 -0.041867209 -0.0096380145     2.616043    160.46019    160.53534    4.2406914 
   99000       396000    9860.7561   -37020.411    275.65031   0.12136022   -27159.655    2472.4551    4.1842518 -0.067302935 -0.016517178    4.1848257    160.38019    160.50016     4.543649 
   99200       396800    9925.5084   -37136.695    277.46041    0.0452569   -27211.186    2523.6463     6.735466  -0.11020715 -0.028310564    6.7364271    160.30019    160.49306    5.0036227 
   99400       397600    9776.7995   -37095.767    273.30336  0.019343299   -27318.968    2633.4043    5.0447428 -0.084533448   -0.0165027     5.045478    160.22019    160.36475    5.4494015 
   99600       398400    9777.1391   -37127.555    273.31285 -0.008666249   -27350.416    2665.9089    4.9974081 -0.083374164 -0.018198473    4.9981367    160.14019     160.2834    5.8402692 
   99800       399200    9799.1834   -37131.607    273.92909 -0.059875953   -27332.423    2648.4581    3.8245932 -0.063126116 -0.014648845    3.8251421    160.06019    160.16988    6.2034007 
  100000       400000    9837.8121   -36995.377    275.00892  0.072697401   -27157.564    2473.1138    3.3169954 -0.055479989 -0.012391477    3.3174824    159.98019    160.07538    6.4791645 
  100200       400800    9802.2502   -37174.815    274.01482 -0.043937294   -27372.565    2689.6039   -1.1630969  0.019705772 0.0044021284   -1.1632721    159.90019    159.86736    6.6377543 
  100400       401600    9735.7333   -37251.409    272.15538 -0.036397803   -27515.676    2832.3399   -1.0513524  0.017680938  0.002920582   -1.0515052    159.82019    159.79055    6.4405386 
  100600       402400    9893.6654     -37200.9    276.57026 0.0023746284   -27307.235    2621.8537   -3.1263816  0.054635018 0.0080343073   -3.1268693    159.74019    159.65125    6.3045755 
  100800       403200    9829.8383   -37170.204    274.78602  0.048518242   -27340.366    2652.5902   -6.4012214   0.10717038  0.018422534    -6.402145    159.66019    159.47767    5.9032158 
  101000       404000     9792.815   -37239.435    273.75106 -0.054725362    -27446.62    2760.2607   -7.0993108   0.12004788  0.022356226   -7.1003609    159.58019    159.37772    5.4519049 
  101200       404800     9871.512   -37087.002    275.95098   -0.1123562    -27215.49    2529.1976   -8.6901007   0.14164213  0.025180132   -8.6912914    159.50019    159.25227    4.7601474 
  101400       405600    9922.8201   -37222.889    277.38526  -0.10688052   -27300.068    2613.5463   -6.1606605   0.10644482  0.019183461   -6.1616099    159.42019    159.24455    4.2111324 
  101600       406400    9867.2438   -37230.647    275.83167 -0.052307494   -27363.403    2676.2803   -1.7974578  0.031770991 0.0057420077   -1.7977477    159.34019    159.28923    3.8762872 
  101800       407200    9847.2008   -37129.071    275.27138 -0.010731404   -27281.871    2593.1889   -2.8404672  0.051277583 0.0085884432    -2.840943    159.26019    159.17942    3.6806523 
  102000       408000    9829.9517   -37284.619    274.78919  0.054808475   -27454.667    2764.4465   -3.7182409  0.064165094  0.011223228   -3.7188114    159.18019    159.07434    3.4883528 
  102200       408800     9919.584   -37072.302     277.2948  0.071567568   -27152.718    2463.0407   -2.6372859  0.047664767  0.010626573    -2.637738    159.10019    159.02523    3.2181429 
  102400       409600     9775.377   -37158.272    273.26359  0.079383003   -27382.895    2696.3026  -0.14918745 0.0026766014 0.00064060391  -0.14921283    159.02019    159.01633    3.2181988 
  102600       410400     9853.751   -37121.035    275.45448 0.0015114634   -27267.284    2581.2702  -0.38502745 0.0066728172 0.0017461558  -0.38508923    158.94019    158.92959    3.2514564 
  102800       411200    9878.4777   -37164.801     276.1457 -0.025103322   -27286.323     2599.895   -3.5832986  0.065256621  0.015946207   -3.5839282    158.86019    158.75819    3.0678682 
  103000       412000    9886.1686   -37028.302    276.36069  0.064734147   -27142.134    2454.8494    2.7707577 -0.050192891 -0.0095807672    2.7712289    158.78019    158.85977    2.9964085 
  103200       412800    9782.3346   -37074.318    273.45809 -0.036506228   -27291.983     2603.259            0            0            0            0    158.70019    158.70124    3.1271149 
  103400       413600     9827.828   -36962.316    274.72983   0.07742564   -27134.488     2446.815  -0.13653865 0.0022739309 0.00034414977  -0.13655801    158.62019    158.61669    3.0687911 
  103600       414400    9908.7694   -37066.069    276.99248 -0.010633572     -27157.3     2470.797   0.50948162 -0.0088455411 -0.001372671   0.50956025    158.54019    158.55515    3.1513172 
  103800       415200    9716.8124   -37233.099    271.62646  -0.11376146   -27516.287    2828.9736   0.68506053  -0.01227547 -0.0024720332   0.68517496    158.46019    158.48017    3.0096884 
  104000       416000    9898.0892   -37207.952    276.69393 -0.021371394   -27309.863    2620.6992    2.5074524 -0.043775057 -0.0091327663    2.5078512    158.38019    158.45224    3.1910348 
  104200       416800    9893.1823   -37078.323    276.55676 -0.066548617    -27185.14    2495.9514   0.36293852 -0.0065574394 -0.0011620398   0.36299962    158.30019    158.31096    3.3560452 
  104400       417600    9755.5628   -37021.314     272.7097 0.0027383101   -27265.751     2577.075      1.96953 -0.036371429 -0.006981412    1.9698782    158.22019    158.27687    3.4249056 
  104600       418400    9880.9822   -37086.311    276.21571 -0.021958439   -27205.328    2517.6683   0.54638549 -0.010339189 -0.0023302158   0.54648827    158.14019    158.15621    3.5021703 
  104800       419200     9809.141   -36986.121    274.20744  0.053927249    -27176.98    2491.1708    0.3118791 -0.0058960304 -0.0011708958   0.31193703    158.06019     158.0695    3.5738556 
  105000       420000    9816.0146   -37010.557    274.39959  0.025655739   -27194.542     2509.508    3.7334355 -0.071578867 -0.012685775    3.7341431    157.98019    158.08728    3.7217944 
  105200       420800    9891.1008   -36909.142    276.49857  0.033748493   -27018.041    2332.9084    3.4662242 -0.068583841  -0.01312019    3.4669275    157.90019    157.99965    3.9585958 
  105400       421600     9810.033   -36961.051    274.23238  -0.03817052   -27151.018    2465.6255    5.5295753  -0.10358897  -0.01761896    5.5305736    157.82019    157.97861    4.3153709 
  105600       422400    9792.0848   -37197.042    273.73065  0.011586911   -27404.957    2718.4655    5.0133891  -0.09224932 -0.015626619    5.0142621    157.74019    157.88386    4.7947371 
  105800       423200    9880.8476   -37050.148    276.21195  0.061350739   -27169.301    2483.1757    4.2826154 -0.077357435 -0.013650188    4.2833357    157.66019    157.78297    5.1872212 
  106000       424000    9724.9218   -37119.861    271.85316   0.06443815   -27394.939    2708.8766    4.4882762 -0.080649914 -0.014541091    4.4890243    157.58019    157.70885    5.5907029 
  106200       424800    9905.1835   -37221.391    276.89224  0.081830603   -27316.208    2629.5677    3.0853711 -0.057965325 -0.0097149001    3.0859309    157.50019    157.58876    5.8294725 
  106400       425600    9866.4977   -37142.528    275.81081  0.019059484   -27276.031    2589.3316    1.9681346 -0.035186589 -0.0071109775     1.968462    157.42019    157.47683    6.0314652 
  106600       426400    9983.8577   -37186.893    279.09152   0.12884844   -27203.035    2516.0474   -2.4319903  0.044288493 0.0075199677   -2.4324052    157.34019    157.27109    6.1042398 
  106800       427200    9844.1706   -37177.354    275.18667 -0.054746495   -27333.183    2648.4014   -4.1627074  0.075634395   0.01402003    -4.163418    157.26019    157.14164    5.7575839 
  107000       428000    9894.0889   -37111.978     276.5821 -0.051294875   -27217.889    2533.2947   -1.0553482  0.019971121 0.0036028821   -1.0555433    157.18019    157.15043    5.4782002 
  107200       428800    9874.7227   -37135.281    276.04073  0.034178097   -27260.559    2575.3269   -5.9474328   0.11377586  0.025920728   -5.9485775    157.10019    156.93063    5.2382888 
  107400       429600    9812.8483   -37217.766    274.31108  0.074355159   -27404.918    2716.2874  -0.33111149 0.0065350958 0.0010071594   -0.3311775    157.02019    157.01113    4.8215328 
  107600       430400    9858.1165   -37249.989    275.57652   0.17630495   -27391.872    2700.9024   0.67204093 -0.012765056 -0.0019889785    0.6721651    156.94019     156.9598       4.7639 
  107800       431200    9850.5121   -37200.667    275.36394 -0.014432893   -27350.155    2661.0257  -0.10943934 0.0021171163 0.00040779718  -0.10946058    156.86019    156.85746    4.6459706 
  108000       432000    9939.3254   -37142.567    277.84665  -0.11549537   -27203.242    2516.7108    1.8031393 -0.034891508 -0.0062837773    1.8034878    156.78019    156.83212    4.6085564 
  108200       432800    9885.3561   -37116.984    276.33798 -0.090315638   -27231.628    2546.3892  -0.58501754  0.011020545 0.0019600547  -0.58512462    156.70019    156.68387    4.6105504 
  108400       433600    10026.123   -37374.797    280.27302  0.045177332   -27348.674    2661.7068   -4.5610353  0.087973653  0.019618193   -4.5619258    156.62019    156.49025    4.3862905 
  108600       434400    9876.8943   -37317.911    276.10144  0.049607376   -27441.017    2752.8175   -1.5917895  0.030645254 0.0069553861   -1.5920996    156.54019     156.4951    4.1347344 
  108800       435200     9844.091   -37249.367    275.18445  0.056890171   -27405.276    2716.5065   -4.0109855  0.076606578  0.017907576   -4.0117569    156.46019    156.34597    3.9040042 
  109000       436000     9824.859     -37148.5    274.64683 -0.023770517   -27323.641    2636.0395    -4.059632  0.080036361   0.01721317   -4.0604574    156.38019    156.26458    3.6479832 
  109200       436800     9744.384   -37324.685    272.39721 -0.049066378   -27580.301    2891.2875   -6.3169564   0.12118861   0.02302755   -6.3181607    156.30019    156.12007    3.2714026 
  109400       437600     9765.828   -37326.739    272.99666  0.063262483   -27560.911    2870.1533    -4.987103  0.094222976  0.015104361   -4.9880159    156.22019    156.07808    2.8477318 
  109600       438400    9867.3014   -37329.952    275.83327 0.0075772066   -27462.651     2769.708   -2.2294086  0.042427826 0.0083966428   -2.2298281    156.14019    156.07688    2.6345824 
  109800       439200    9741.5873   -37315.143    272.31903  0.027389025   -27573.555    2881.7215  -0.95033251  0.018425015 0.0026796898  -0.95051489    156.06019    156.03343    2.4640031 
  110000       440000    9700.6411   -37364.429    271.17441   -0.1201559   -27663.788    2973.1798    2.3007681 -0.044191041 -0.0069131595    2.3012029    155.98019    156.04634    2.4873199 
  110200       440800    9842.8209   -37173.854    275.14894  0.029453284   -27331.033    2640.2361       3.0602 -0.057994646 -0.011153433    3.0607698    155.90019    155.98804    2.7407906 
  110400       441600     9928.765   -37338.976    277.55145 -0.010224677   -27410.211    2720.5952  -0.21758008  0.004238099 0.00079002137  -0.21762278    155.82019    155.81437    2.8830403 
  110600       442400    9806.9844   -37324.707    274.14716 -0.061365363   -27517.722    2828.9739   0.89983669 -0.017606768 -0.0031779452   0.90001454    155.74019    155.76631     2.956662 
  110800       443200    9815.6196   -37150.953    274.38855  0.035524749   -27335.333    2646.9575   0.83492392   -0.0162454 -0.002370276   0.83508531    155.66019    155.68445    3.1088315 
  111000       444000    9805.2739   -37306.195    274.09934  0.026313533   -27500.921    2810.3942    3.9277866 -0.077359946 -0.013113255    3.9285702    155.58019    155.69284    3.2376775 
  111200       444800     9727.496   -37465.529    271.92512   0.10026697   -27738.033    3047.3929    1.6679698 -0.032372713 -0.0053489169    1.6682925    155.50019    155.54826    3.6090156 
  111400       445600    9868.8307   -37304.747    275.87603 -0.0061259351   -27435.916    2746.6282   0.90229616 -0.017710877 -0.0027171091   0.90247405    155.42019    155.44638    3.6399313 
  111600       446400     9724.376   -37122.647     271.8379  0.010205002   -27398.271    2711.1887    1.3164138 -0.025337004 -0.0043090717    1.3166646    155.34019    155.37821    3.7122641 
  111800       447200    9895.5762   -37119.812    276.62368   -0.1393928   -27224.236    2538.8316   0.51450108 -0.010223341 -0.001772146   0.51460569    155.26019    155.27529     3.851595 
  112000       448000    9829.9752   -37278.462    274.78985 -0.059184359   -27448.487     2762.155    4.9478772 -0.097873768 -0.016110116    4.9488713    155.18019    155.32199    4.1289926 
  112200       448800    9661.8948   -37309.427    270.09128 -0.036771405   -27647.533    2959.9207    6.1620769  -0.11802659 -0.021865487    6.1632459    155.10019    155.27668    4.6097545 
  112400       449600    9811.7446     -37370.3    274.28022  0.002184795   -27558.555    2869.4422    4.3057331 -0.081530187 -0.016107656    4.3065351    155.02019    155.14364    4.9547502 
  112600       450400    9794.8138   -37188.591    273.80694   0.14736036   -27393.777    2704.8138    2.0971809 -0.040200497 -0.0089568342    2.0975852    154.94019    155.00052    5.3117913 
  112800       451200    9768.3942   -37191.496     273.0684 -0.053533438   -27423.102    2736.8009  0.061345349 -0.0011727153 -0.0001949897  0.061356867    154.86019    154.86234      5.47485 
  113000       452000    9818.4975   -37083.389      274.469  0.018257315   -27264.891     2580.363     1.789874 -0.034374262 -0.0058106493    1.7902134    154.78019    154.83174    5.5242988 
  113200       452800    9931.5925   -37251.812    277.63049  0.060474696   -27320.219    2634.6371   -4.5659612  0.086158526  0.011952704   -4.5667897    154.70019    154.57011    5.5645019 
  113400       453600    9667.5133   -37151.099    270.24834 -0.058475009   -27483.586     2797.184   -5.8311831   0.11528415  0.017258928   -5.8323481    154.62019    154.45395    5.1041849 
  113600       454400    9862.6911   -37053.453     275.7044   0.15761347   -27190.762    2505.4558    -1.317311  0.025852061 0.0033658535   -1.3175689    154.54019    154.50295     4.923541 
  113800       455200    9839.5459   -37102.046    275.05739 -0.040826565     -27262.5    2576.6405   -3.8123136  0.072782654  0.009254982   -3.8130195    154.46019    154.35165    4.6927579 
  114000       456000    9860.5516   -37139.494    275.64459 0.0050174606   -27278.942    2591.9914     -3.25159   0.06305831 0.0081701998   -3.2522117    154.38019    154.28767    4.4077012 
  114200       456800    9861.2751   -37145.183    275.66481  0.056245537   -27283.908    2594.6845   -5.7507185   0.10767131  0.012081339   -5.7517391    154.30019    154.13626    4.1664094 
  114400       457600    9791.4779   -37270.884    273.71368  0.055548185   -27479.406    2788.5729   -5.7069144   0.11130097  0.011555363   -5.7080114    154.22019    154.05751    3.8573505 
  114600       458400    9744.0283   -37217.014    272.38726    0.0931809   -27472.986    2782.4641   -6.5090027   0.11861684  0.018545992   -6.5101099    154.14019    153.95459    3.3251267 
  114800       459200    9843.3032   -37227.219    275.16242 -0.039723574   -27383.916    2695.5771   -2.8938305  0.056384062  0.008754223    -2.894393    154.06019    153.97789    2.9859712 
  115000       460000    9888.3043   -37273.707     276.4204 -0.0025946844   -27385.403    2697.3015   -3.2329107  0.064339652 0.0094538904   -3.2335646    153.98019     153.8882    2.7581744 
  115200       460800    9876.8371   -37157.983    276.09984 -0.031157142   -27281.146    2590.1922    1.3759445  -0.02698866 -0.0050417206    1.3762184    153.90019    153.93991    2.7669789 
  115400       461600    9758.2429   -37352.991    272.78462  0.028652773   -27594.748     2903.432  0.058913713 -0.0012146034 -0.00019228214  0.058926546    153.82019    153.82228    2.7747798 
  115600       462400    9885.3137    -37128.06     276.3368  0.081508116   -27242.746    2551.9967   -1.0249041   0.02072761 0.0023089986   -1.0251162    153.74019     153.7113    2.7349789 
  115800       463200    9819.3973   -37147.525    274.49415 -0.00055872404   -27328.128    2639.4322      1.55077 -0.031684044 -0.0040582916    1.5510989    153.66019    153.70491    2.6977946 
  116000       464000    9900.0651   -37067.366    276.74916 -0.044459086   -27167.301    2476.8343    3.2721867 -0.068280576 -0.007439814    3.2729074    153.58019     153.6741    2.7677319 
  116200       464800    9876.4839   -37256.258    276.08996   0.05432855   -27379.774    2689.1996    3.7624219  -0.08128708 -0.008652814    3.7633098    153.50019    153.60811    2.9221951 
  116400       465600    9799.7914   -37266.999    273.94608   0.11099822   -27467.208    2774.6208   0.27310751 -0.0059399119 -0.00055425938   0.27317266    153.42019     153.4284    3.0396237 
  116600       466400     9764.989   -37277.807    272.97321 -0.026807625   -27512.818    2823.8269    4.5071324  -0.10327772 -0.0087377596     4.508324    153.34019     153.4694    3.1813804 
  116800       467200    9849.4419   -37255.791    275.33403 -0.0077785205   -27406.349    2718.5481    2.9318002 -0.064499694 -0.0065612899     2.932517    153.26019    153.34438    3.4958399 
  117000       468000    9851.9437   -37124.368    275.40396 -0.0017916208   -27272.424    2584.4659    1.5490856 -0.032388359 -0.0041132237    1.5494296    153.18019    153.22486    3.6804897 
  117200       468800    9734.7572   -37314.315     272.1281 -0.0089264357   -27579.557     2890.417    4.5462272 -0.098173328 -0.0083913345    4.5472948    153.10019    153.23051    3.8241157 
  117400       469600     9743.658   -37374.853    272.37691   0.03348555   -27631.195    2941.1683    1.9736949 -0.042376793 -0.0042062699    1.9741543    153.02019      153.077    4.2127758 
  117600       470400    9710.0632   -37256.773    271.43779  -0.10839716    -27546.71    2856.6508    1.9963586 -0.041831553 -0.0053372385    1.9968039    152.94019    152.99764    4.3485309 
  117800       471200    9858.7525    -37234.62     275.5943  0.062744235   -27375.867    2686.2024    3.7619956 -0.076987232 -0.010943204    3.7627992    152.86019     152.9681    4.7608819 
  118000       472000    9782.8128   -37266.797    273.47146  0.039519992   -27483.984    2795.1589    1.8577713  -0.03907596 -0.0070653144    1.8581957    152.78019    152.83368    5.0264496 
  118200       472800    9720.6823   -37330.044    271.73465   0.02348978   -27609.362    2920.4094   0.45800426 -0.0097954171 -0.0018172386    0.4581126    152.70019    152.71368    5.0982995 
  118400       473600    9932.9568   -37328.664    277.66863 -0.017161779   -27395.707    2706.1563   -3.5805111  0.075079342   0.01211345   -3.5813187    152.62019    152.51827    4.9856909 
  118600       474400    9905.1467    -37243.53    276.89121  0.029198798   -27338.384     2649.641   -1.3128962  0.028283913 0.0046846799   -1.3132091    152.54019    152.50307    4.6999393 
  118800       475200    9791.0369   -37336.939    273.70136  -0.07157225   -27545.903     2856.783   -4.0189043  0.086800298   0.01264036   -4.0198614    152.46019    152.34574     4.521609 
  119000       476000    9873.6908   -37255.703    276.01189 -0.052353583   -27382.012    2693.2492   -4.6315872   0.10250943  0.012709349   -4.6327389    152.38019    152.24823    4.0789175 
  119200       476800     9851.163   -37364.393    275.38214 -0.088907523    -27513.23    2823.7232   -2.6779335  0.057022055 0.0069907782   -2.6785496    152.30019    152.22406    3.7533236 
  119400       477600    9810.9521   -37424.603    274.25807  0.016458656   -27613.651    2920.7613   -3.1788626  0.066846896 0.0072395018   -3.1795736    152.22019    152.12975    3.6091907 
  119600       478400    9832.4716   -37375.788    274.85963  0.046168854   -27543.316    2851.1283    -1.000456  0.020643066 0.0020947215   -1.0006712    152.14019      152.112    3.4435341 
  119800       479200    9895.4591   -37268.822     276.6204  0.014055936   -27373.363    2683.3969   0.86786705 -0.017714762 -0.0011956659   0.86804865    152.06019    152.08539    3.4495105 
  120000       480000    9955.0155   -37161.094    278.28526 -0.096746356   -27206.078    2519.0648    3.9227866 -0.078987121 -0.0097840309    3.9235939    151.98019    152.09269    3.7142094 
  120200       480800    9953.6598   -37094.131    278.24736 -0.029712399   -27140.472    2454.3016    2.1379849 -0.043608257 -0.0083340622    2.1384458    151.90019    151.96169    4.0709058 
  120400       481600    9835.0851   -37246.237    274.93269 -0.044031338   -27411.152    2722.0678  -0.32445019 0.0064780102 0.00096687016   -0.3245163    151.82019    151.81132    4.1088319 
  120600       482400    9830.6788   -37252.089    274.80952  0.063926748    -27421.41     2730.643    1.9565262 -0.039672126 -0.0074421471    1.9569426    151.74019     151.7965    4.1665692 
  120800       483200    9779.7292   -37349.089    273.38526  0.041586981    -27569.36    2879.1226   -2.8330334  0.057454609 0.0088107886   -2.8336297    151.66019    151.57963    4.2065247 
  121000       484000    9802.8403   -37127.765    274.03131 -0.075984088   -27324.925    2637.8779   -1.5390332  0.031643964 0.0056621635   -1.5393689    151.58019    151.53661    4.0739782 
  121200       484800    9866.4944   -37193.262    275.81072 -0.096388181   -27326.768     2640.445   -1.4167884  0.029402002 0.0043938918   -1.4171003    151.50019     151.4601    3.8896785 
  121400       485600    9848.8904   -37363.124    275.31861   0.02503523   -27514.234    2826.5193  -0.59543177   0.01239635 0.0022828248  -0.59556517    151.42019    151.40358    3.7919499 
  121600       486400    9878.4144   -37541.234    276.14393  0.037370755    -27662.82     2971.469   -3.4826593  0.069879207  0.012069223   -3.4833812    151.34019    151.24107    3.7076914 
  121800       487200    9780.8955   -37424.436    273.41786   0.12744135    -27643.54     2950.704    1.2265206 -0.024528013 -0.0038514841    1.2267718    151.26019    151.29564    3.6387223 
  122000       488000    9968.5082   -37370.414    278.66244   0.11351048   -27401.906    2710.7019    3.9706964 -0.081813463 -0.0080675553    3.9715473    151.18019    151.29406    3.8751322 
  122200       488800    9838.7091   -37126.051      275.034 -0.037679128   -27287.342    2599.8397    2.0917528 -0.043603946 -0.0060096114    2.0922158    151.10019    151.16037    4.1305516 
  122400       489600    9839.7801   -37216.112    275.06394 -0.082773283   -27376.332    2691.6496    4.3625094 -0.091648915 -0.012028194    4.3634886    151.02019    151.14526    4.3531664 
  122600       490400    9819.9901   -37331.251    274.51072  0.040279598   -27511.261    2823.0875    1.2709811 -0.027392745 -0.0036616815    1.2712815    150.94019    150.97691    4.4981801 
  122800       491200    9816.7917   -37326.457    274.42131   0.13786781   -27509.665    2817.6791    4.0845507 -0.087327654 -0.011552467    4.0855005    150.86019    150.97732    4.6558674 
  123000       492000     9856.655   -37390.606    275.53566   0.12079371   -27533.951    2842.8497    3.1279243 -0.065433305 -0.010139445    3.1286251    150.78019    150.86998    4.9784113 
  123200       492800    9972.5129   -37190.919    278.77439  0.072931266   -27218.406    2529.8372   -1.2665584  0.026385754 0.0050679445   -1.2668434    150.70019     150.6644    5.0366579 
  123400       493600    9808.8425   -37141.992     274.1991 -0.047888779   -27333.149    2647.7594   -2.0523877  0.042500632 0.0089099228    -2.052847    150.62019    150.56194    4.9475638 
  123600       494400    9897.6477   -37372.223    276.68158  0.021392504   -27474.575    2787.0926   -2.8193414  0.059547345  0.010932909   -2.8199913    150.54019    150.46002    4.7251309 
  123800       495200    9866.4635   -37365.636    275.80985  0.011745518   -27499.172    2807.7631   -3.6852129  0.076551062  0.016071085   -3.6860429    150.46019    150.35528    4.4804744 
  124000       496000    9775.8515   -37410.894    273.27686   0.10183473   -27635.042    2942.0305   -4.0441066  0.085795191  0.015041953   -4.0450446    150.38019    150.26502     4.085508 
  124200       496800    9884.0051   -37406.551    276.30022 -0.0018462907   -27522.546    2830.7702   -2.8343511  0.059120944  0.012298808   -2.8349943    150.30019    150.21959    3.8908761 
  124400       497600    9748.8669   -37101.667    272.52253  0.058095521   -27352.801    2663.7847  -0.97561509  0.020143408 0.0042544108  -0.97583229    150.22019    150.19271    3.7419128 
  124600       498400    9768.9754   -37212.034    273.08464  -0.10990106   -27443.059    2755.5535   0.58900317 -0.011956323 -0.0016425608    0.5891268    150.14019    150.15742    3.6634683 
  124800       499200    9854.9721   -37300.168    275.48862  -0.10321672   -27445.196    2757.3402    2.6517063 -0.057503168 -0.0092464654    2.6523458    150.06019    150.13637     3.759748 
  125000       500000    9874.3384   -37271.013    276.02999  0.050853897   -27396.675    2706.9091    1.0126863 -0.022638088 -0.0032395366    1.0129445    149.98019    150.00953     3.799023 
  125200       500800    9917.7668   -37427.024      277.244  0.024959082   -27509.258    2818.4118    2.0606606 -0.044743408 -0.0053747638    2.0611533    149.90019    149.95948     3.829844 
  125400       501600    9890.5715   -37416.684    276.48377  0.007315358   -27526.113    2835.7552    1.5786118 -0.034467537 -0.005115686    1.5789963    149.82019    149.86571    3.9451301 
  125600       502400    9845.2004   -37297.648    275.21546 -0.085447157   -27452.448    2763.0988   -1.3860489  0.031211229 0.0050795323   -1.3864096    149.74019    149.70098    3.9161348 
  125800       503200    9708.6354   -37232.643    271.39788  -0.01220799   -27524.008    2834.2699    3.0632376 -0.068032994 -0.011913416    3.0640162    149.66019    149.74813    4.1001045 
  126000       504000    9887.4622   -37360.874    276.39686 -0.074646039   -27473.412    2783.8312   0.21364485 -0.0046138881 -0.00096306317   0.21369683    149.58019     149.5867    4.3233128 
  126200       504800    9832.9122   -37375.196    274.87195  0.019354559   -27542.284     2852.548   -2.6455104  0.058907451  0.012062453   -2.6461936    149.50019    149.42499    4.2432944 
  126400       505600    9820.5862   -37440.177    274.52739  -0.02582048   -27619.591    2929.9583    2.8361982 -0.059944281 -0.011292353     2.836854    149.42019    149.50164    4.3014306 
  126600       506400    9893.8581   -37224.629    276.57565   0.16549226   -27330.771    2642.6932    2.4059549 -0.050951049 -0.0095526047    2.4065133    149.34019    149.40935    4.4718812 
  126800       507200    9933.7846       -37342    277.69177 2.7962998e-05   -27408.216    2720.8318    0.3057493 -0.0061821993 -0.00098473003   0.30581338    149.26019    149.26933    4.5477351 
  127000       508000    9935.6958   -37283.705    277.74519  0.040360737    -27348.01    2660.9795    1.4658569 -0.029601841 -0.0039491362     1.466161    149.18019    149.22248    4.5896388 
  127200       508800    9797.7538   -37323.456    273.88912  0.047280814   -27525.703    2837.1035   -1.1400909  0.023665809 0.0041401605    -1.140344    149.10019    149.06801    4.5492469 
  127400       509600    9800.8819   -37430.481    273.97657 -0.028923387     -27629.6    2939.3631   -5.4092603    0.1156867  0.021267587    -5.410539    149.02019      148.866    4.1117942 
  127600       510400    9838.6386   -37276.661    275.03203 -0.018678369   -27438.022    2748.9807   -5.5263241   0.11801581  0.020408053   -5.5276217    148.94019    148.78266    3.6022121 
  127800       511200    9899.6596   -37294.511    276.73782  0.009655876   -27394.852    2706.3635   -3.1733061  0.070805579   0.01099502    -3.174115    148.86019     148.7699    3.1810676 
  128000       512000    9752.0639   -37255.124     272.6119  0.050325163    -27503.06    2813.2203     2.426833 -0.056034523 -0.0097166778    2.4274992    148.78019    148.84995    3.1889584 
  128200       512800    9748.3801    -37269.85    272.50892 0.0017169492    -27521.47    2830.9224 -0.064442774 0.0015220031 0.0001972178 -0.064461047    148.70019    148.69875    3.1914524 
  128400       513600    9795.8567   -37264.941    273.83609  -0.03018479   -27469.084    2778.1887    1.1601488 -0.027557002 -0.0037600738    1.1604821    148.62019    148.65375    3.2573243 
  128600       514400    9833.3574   -37351.145    274.88439 -0.065365345   -27517.787    2827.1758   -1.6349062  0.039039326 0.0062655933   -1.6353842    148.54019    148.49387    3.2407832 
  128800       515200    9759.9565   -37232.903    272.83253  0.075761491   -27472.947    2782.1278    1.2751358 -0.030713757 -0.0040948831    1.2755122    148.46019    148.49703    3.3493747 
  129000       516000    9928.6355   -37360.531    277.54782   0.01957855   -27431.896    2742.6645    1.5053582  -0.03688777 -0.005752294     1.505821    148.38019    148.42362    3.5116706 
  129200       516800    9819.8119    -37228.15    274.50574  0.037888178   -27408.338    2719.1838    2.9751904 -0.071739558 -0.010251389    2.9760728    148.30019    148.38562    3.7423828 
  129400       517600    9840.1301   -37161.821    275.07372    0.0807718   -27321.691    2632.4902    2.7433497 -0.065465089 -0.0057818596    2.7441368    148.22019      148.299    4.0620713 
  129600       518400    9817.1364   -37230.402    274.43095  0.010846472   -27413.265    2724.0564    3.2110093 -0.076122452 -0.0092914651    3.2119249    148.14019    148.23236    4.2664176 
  129800       519200    9826.7017   -37349.545    274.69834  0.032638492   -27522.843    2834.2648   -2.4080597  0.055788152 0.0051669405   -2.4087113    148.06019    147.99177    4.3372178 
  130000       520000    9865.2221   -37289.029    275.77515  0.058504135   -27423.807    2733.9406    1.7976712 -0.041480766  -0.00323641    1.7981526    147.98019    148.03197    4.2479751 
  130200       520800    9787.2057   -37352.386    273.59426  0.010371535    -27565.18    2874.9634    2.3159172  -0.05342195 -0.0065056053    2.3165424    147.90019    147.96678    4.4508364 
  130400       521600     9955.928   -37290.195    278.31077  0.024873917   -27334.267    2643.2911  -0.51196394  0.011722824 0.00094976342  -0.51209902    147.82019    147.80596     4.479336 
  130600       522400    9949.1165   -37343.743    278.12036 -0.024625021   -27394.627    2704.7061   -2.0074305  0.045956308 0.0048424639   -2.0079623    147.74019    147.68322    4.4877192 
  130800       523200    9862.2249   -37338.935    275.69137 -0.027739657    -27476.71     2786.504   -2.1160624  0.047950893 0.0083439254   -2.1166221    147.66019    147.60012    4.2229254 
  131000       524000    9898.3221   -37434.782    276.70044 -0.025900245    -27536.46    2846.2111   -1.5592447  0.034942312 0.0068214648   -1.5596511    147.58019    147.53603    3.9986516 
  131200       524800    9770.2266   -37431.932    273.11962  -0.10268877   -27661.706    2971.3588     -5.37479   0.12404807  0.022633202   -5.3762689    147.50019    147.34698      3.65118 
  131400       525600    9895.1893   -37292.175    276.61286  0.011874374   -27396.986    2707.7984   -3.0858681  0.069183862  0.011807085   -3.0866661    147.42019     147.3324    3.3275896 
  131600       526400    9828.5164   -37381.975    274.74907  -0.15101718   -27553.458     2864.382   0.98052187 -0.021683905 -0.0050354489   0.98077453    147.34019    147.36861    3.3621149 
  131800       527200    9833.8716   -37368.726    274.89877 -0.038809365   -27534.855    2844.7893    1.1694821 -0.025757584 -0.0061494797    1.1697819    147.26019    147.29401    3.3562225 
  132000       528000    9788.3481    -37393.41    273.62619    0.0973325   -27605.062    2912.5456    2.6487061 -0.057223389 -0.010903726    2.6493466    147.18019    147.25629    3.5404034 
  132200       528800    9779.5716   -37298.445    273.38085   0.11981899   -27518.873    2827.2639  -0.64547971  0.013658624 0.0028915291  -0.64563068    147.10019    147.08215    3.7289234 
  132400       529600    9703.7172   -37201.214     271.2604 -0.075729118   -27497.497    2808.6572     3.288653 -0.071090837 -0.015481077    3.2894577    147.02019    147.11458     3.945562 
  132600       530400    9817.7989   -37287.944    274.44947  -0.03288029   -27470.145    2784.1751     4.857206  -0.10338802 -0.020250733    4.8583485    146.94019     147.0794    4.4005752 
  132800       531200    9794.9416   -37435.086    273.81051 -0.0025723044   -27640.144     2955.172    2.8228353 -0.062223108 -0.012355442     2.823548    146.86019    146.94126    4.6046472 
  133000       532000    9748.0532   -37220.399    272.49978  0.015913886   -27472.346    2784.6899    2.1032261 -0.046638186 -0.0096802897    2.1037654    146.78019     146.8407    4.8728076 
  133200       532800    9860.0046   -37449.103     275.6293   0.11982771   -27589.098    2898.3485   -1.4553008  0.032872775 0.0050651835   -1.4556809    146.70019      146.659    4.8804689 
  133400       533600    9846.9819   -37466.408    275.26526 0.0092916241   -27619.426    2929.6044    -3.138828  0.071244932  0.011328766   -3.1396569    146.62019    146.53089    4.6070848 
  133600       534400    9909.3069   -37337.564    277.00751 -0.082184209   -27428.257    2740.6858   -5.8060423   0.13401056  0.022310103   -5.8076315    146.54019    146.37466    4.1442943 
  133800       535200    9764.8404   -37329.543    272.96905 -0.044697543   -27564.702     2877.002   -3.7908252  0.087908929  0.011541025   -3.7918619    146.46019    146.35225    3.7336687 
  134000       536000    9885.0144   -37332.526    276.32843  0.042538147   -27447.512    2756.0204   -4.6845529   0.11118103  0.017619357   -4.6859052    146.38019    146.24671    3.4359676 
  134200       536800     9910.767   -37417.353    277.04833   0.21721215   -27506.586    2812.2345   -2.0648476  0.048313756 0.0087890311   -2.0654314    146.30019    146.24158    3.2539554 
  134400       537600    9771.4881    -37470.81    273.15488  0.098363986   -27699.322    3006.3217     1.143482 -0.026453636 -0.0040168432     1.143795    146.22019    146.25327    3.2004653 
  134600       538400    9952.6193   -37424.498    278.21828 -0.061050317   -27471.878    2782.9231            0            0            0            0    146.14019    146.14038      3.21683 
  134800       539200    9834.2825   -37343.042    274.91026  -0.14392112    -27508.76    2821.0769    3.6712854 -0.087551964 -0.014622486    3.6723584    146.06019    146.16552    3.4072171 
  135000       540000    9965.3979   -37245.511    278.57549  0.004785296   -27280.113    2591.0505    5.6959893  -0.13816623  -0.02526768    5.6977208    145.98019    146.14338    3.7901595 
  135200       540800    9793.6101   -37193.702    273.77329  0.083516614   -27400.092    2709.2322    1.5815744 -0.038352484 -0.0068226566    1.5820541    145.90019    145.94579    4.0584702 
  135400       541600    9805.9531   -37345.176    274.11833  0.061807015   -27539.223    2847.8211    2.2916546 -0.055313411 -0.010370612    2.2923455    145.82019    145.88609    4.2623679 
  135600       542400    9839.1206   -37337.364     275.0455  0.032818777   -27498.243    2807.7853    6.0254851  -0.14802536 -0.028696843    6.0273714    145.74019     145.9128    4.5770774 
  135800       543200    9856.6928    -37402.91    275.53672  -0.11342221   -27546.217    2857.9676     4.873707  -0.11650109 -0.020123301    4.8751407    145.66019    145.79988     5.036056 
  136000       544000    9809.8546   -37367.196    274.22739 -0.087632822   -27557.342    2867.8695   -1.7700642    0.0444559 0.0087906392   -1.7706442    145.58019       145.53    4.9975481 
  136200       544800     9905.536   -37300.294    276.90209  0.053686491   -27394.758    2705.2831   -3.2574715  0.079384952  0.013523197   -3.2584667    145.50019    145.40749    4.8084845 
  136400       545600    9847.1092   -37458.072    275.26882  0.031874874   -27610.962    2920.2243   -5.5593077   0.13935609  0.021629229   -5.5610962    145.42019     145.2617    4.3921338 
  136600       546400    9747.0794   -37496.894    272.47256   0.05862352   -27749.815    3059.5738   -1.1322211  0.028548316 0.0052723655   -1.1325932    145.34019    145.30823    4.1661601 
  136800       547200    9856.2816   -37452.277    275.52522 -0.015982461   -27595.995    2906.8277     1.227614 -0.029328963 -0.0049906036    1.2279745    145.26019    145.29568    4.1424736 
  137000       548000    9892.7796   -37364.233     276.5455  -0.15680501   -27471.453    2779.9604    3.2184754 -0.077909815 -0.011669164    3.2194394    145.18019    145.27258    4.3453072 
  137200       548800    9726.7934   -37339.804    271.90548  0.090037708   -27613.011    2920.6438     1.808085 -0.043565373 -0.0067327259    1.8086223    145.10019    145.15227    4.6343985 
  137400       549600    9850.5438   -37498.696    275.36483 -0.065675418   -27648.152     2955.993    5.4268275  -0.13469273 -0.021781755    5.4285425    145.02019    145.17569    4.9263067 
  137600       550400    9968.6712   -37391.778    278.66699 -0.0099414442   -27423.107    2733.5493    2.8313921 -0.071125582 -0.011580044     2.832309    144.94019    145.02151    5.2990218 
  137800       551200    9733.6248   -37345.117    272.09644 -0.089944716   -27611.492    2923.9729   -1.7288555  0.042427402 0.0069769422   -1.7293901    144.86019    144.81118    5.3040777 
  138000       552000    9811.1836   -37437.206    274.26454 -0.055695923   -27626.022    2937.2043 -0.075573299  0.001919739 0.0003300591 -0.075598399    144.78019    144.77843    5.1400861 
  138200       552800    9918.0363   -37380.974    277.25153  0.041908947   -27462.938    2771.8518   0.18425937 -0.0046777824 -0.00080081634   0.18432047    144.70019    144.70586    5.1193976 
  138400       553600    9955.1205   -37457.603    278.28819  -0.04676521   -27502.483    2811.4737    2.1001052 -0.052955068 -0.0097257924    2.1007952    144.62019    144.68061    5.1903337 
  138600       554400    9923.4815   -37281.523    277.40375 -0.017157864   -27358.042    2667.9201    2.3810635 -0.060957709 -0.010634153    2.3818674    144.54019    144.60864    5.1696816 
  138800       555200    9831.1184   -37377.717     274.8218 -0.053628714   -27546.598    2856.0831   0.29941164 -0.007658656 -0.0014107336    0.2995129    144.46019    144.46915    5.1206798 
  139000       556000    9810.9524   -37326.154    274.25808   0.10640952   -27515.202    2825.3512    2.1200167 -0.054645523 -0.0088756939    2.1207394    144.38019    144.44118    5.1839026 
  139200       556800    9791.4568   -37263.502     273.7131  0.021713425   -27472.045    2782.9144   -1.1706591  0.028604092 0.0055053523   -1.1710214    144.30019    144.26713    5.1861511 
  139400       557600    9956.2366    -37215.62    278.31939  -0.12002605   -27259.384    2571.4208   -7.2855601     0.179513   0.03051935   -7.2878352    144.22019    144.01237    4.8020762 
  139600       558400    9724.6365   -37368.604    271.84518  -0.11106764   -27643.967    2955.6776   -4.3266066   0.10500852  0.016766513   -4.3279132    144.14019    144.01694    4.4240461 
  139800       559200    9956.1156   -37449.269    278.31601 -0.070393873   -27493.154    2802.0984   -6.9097328   0.16453163  0.027481449    -6.911746    144.06019    143.86311     3.842364 
  140000       560000    9743.6283   -37298.668    272.37608   -0.0232389    -27555.04    2862.3418   -3.7949414  0.094816086  0.014081263   -3.7961518    143.98019    143.87213    3.4417206 
  140200       560800    9867.0859   -37500.607    275.82725  0.030748178   -27633.522    2940.8114   -7.3552658   0.18729907  0.028912242    -7.357707    143.90019    143.69037    3.0861674 
  140400       561600    9863.5124   -37290.727    275.72736  0.010086822   -27427.214     2737.629   -2.5188466  0.060596871   0.01111328   -2.5195999    143.82019     143.7486    2.7014114 
  140600       562400    9765.3103   -37260.206    272.98219  -0.10425693   -27494.895    2805.1114   0.82742493 -0.020484416 -0.0027188303   0.82768292    143.74019    143.76424    2.5453817 
  140800       563200    9840.3774   -37416.944    275.08063 0.0019166636   -27576.566    2884.1084  -0.94439255  0.024109245 0.0036563287  -0.94470731    143.66019     143.6336    2.5618804 
  141000       564000    9904.5264   -37382.643    276.87387   0.13613763   -27478.117    2783.7168    2.3326122 -0.057693049 -0.010472343     2.333349    143.58019    143.64726    2.6377999 
  141200       564800    9820.5734   -37441.486    274.52703     0.121361   -27620.912    2927.9732    1.4247886 -0.034832372 -0.0069501979    1.4252312    143.50019    143.54131    2.6969214 
  141400       565600    9927.2367    -37420.34    277.50872 -0.015350672   -27493.104    2802.2029    1.4915953 -0.038131695 -0.0069631337    1.4920989    143.42019    143.46322    2.8536224 
  141600       566400    9809.7811   -37451.965    274.22534  -0.03537677   -27642.184    2951.6398   0.58880344 -0.014696778 -0.0024696622   0.58899201    143.34019    143.35742    2.8519102 
  141800       567200    9918.6788   -37320.544    277.26949  0.085434641   -27401.866    2708.5092    2.2102489 -0.055186625 -0.010635837    2.2109633    143.26019    143.32376    2.9622962 
  142000       568000    9816.9792   -37454.322    274.42655 -0.025996031   -27637.343    2943.8981   -3.8404431   0.09650988   0.01837218   -3.8416994    143.18019    143.07083    2.8334192 
  142200       568800    9962.7121   -37428.656    278.50041 -0.039440253   -27465.944    2774.0194    -2.275739    0.0556376 0.0091222674   -2.2764373    143.10019    143.03555    2.6396644 
  142400       569600    9814.2455   -37331.489    274.35014  0.010334015   -27517.244    2824.7408    -4.588007   0.11202661  0.017587711   -4.5894082    143.02019    142.88947    2.3123774 
  142600       570400    9805.0313   -37358.087    274.09256  0.033840356   -27553.055    2860.9878  -0.64177365  0.015593435 0.0026185595   -0.6419684    142.94019    142.92225    2.1699044 
  142800       571200    9795.4233   -37454.831    273.82398 -0.031640374   -27659.408    2966.9372   0.99660454 -0.023773798 -0.003261574    0.9968934    142.86019    142.88907     2.225268 
  143000       572000    9840.0995   -37463.123    275.07287 -0.027462688   -27623.024    2930.1843    2.7757812 -0.068227339 -0.010102946    2.7766379    142.78019    142.85992    2.3410536 
  143200       572800    9856.5099    -37526.78    275.53161  0.026160205    -27670.27    2977.7491    6.3527849  -0.16001236 -0.023717828     6.354844    142.70019    142.88216    2.7767175 
  143400       573600    9813.5624   -37458.375    274.33104  0.029551329   -27644.812    2952.9149    7.0812501  -0.17884894 -0.025935104    7.0835558    142.62019    142.82298    3.3253233 
  143600       574400    9743.3416   -37336.762    272.36807  0.024931208   -27593.421    2901.6769    7.0273229  -0.17928355 -0.033231168     7.029688    142.54019    142.74144    3.7783648 
  143800       575200    9808.2056   -37319.239     274.1813 -0.00061554381   -27511.033    2820.4344    5.9195838  -0.15043561 -0.026248979    5.9215532    142.46019    142.62978      4.32941 
  144000       576000    9818.9061   -37503.933    274.48042  0.035503399   -27685.027    2994.5541    4.1810816  -0.10734203 -0.023936553    4.1825277    142.38019    142.50009    4.7469886 
  144200       576800    9906.1411    -37404.69    276.91901  -0.04212662   -27498.549    2807.4442   -1.1073797  0.028924744 0.0062257744   -1.1077749    142.30019    142.26894    4.7650911 
  144400       577600    9878.8096   -37489.882    276.15498  0.052953207   -27611.073     2918.537    5.9641324  -0.15213856 -0.031738794    5.9661569    142.22019    142.39105    4.9701554 
  144600       578400    9781.2029   -37464.205    273.42645  0.055373278   -27683.002    2990.7441    3.4310359 -0.089183492 -0.019211007    3.4322485    142.14019    142.23866    5.4367388 
  144800       579200    9679.3615   -37427.465    270.57955 -0.032850417   -27748.104    3058.1443    3.5107313  -0.08880896 -0.018651572    3.5119039    142.06019    142.16093    5.7365571 
  145000       580000    9832.8157   -37419.252    274.86925  -0.05810799   -27586.436    2899.3749    1.6193698 -0.041960109 -0.0059882207    1.6199244    141.98019    142.02688    6.0104667 
  145200       580800    9771.3242   -37437.638     273.1503 -0.022567161   -27666.314       2978.9    1.3456445  -0.03247581 -0.0049996547    1.3460456    141.90019    141.93905    6.0128038 
  145400       581600    9912.2213   -37316.069    277.08898 0.0069997737   -27403.848      2714.54    3.4025078  -0.07935163 -0.014842318    3.4034653    141.82019    141.91783     6.287018 
  145600       582400    9908.1588   -37546.751    276.97541   -0.0931252   -27638.592    2947.9386   -2.5711331  0.061642702  0.010101814   -2.5718918    141.74019    141.66711    6.3992244 
  145800       583200    9828.2016   -37365.401    274.74027   0.10048377   -27537.199    2846.9534   -2.4264442  0.059007467 0.0096253178   -2.4271806    141.66019    141.59124    6.1636003 
  146000       584000    9908.8188    -37458.49    276.99386 0.0058735332   -27549.671    2858.6468   -5.2072637   0.12801283  0.024946954   -5.2088967    141.58019    141.43177     5.851632 
  146200       584800    9837.2127   -37478.661    274.99217 -0.074529232   -27641.448    2950.5488   -6.0885646   0.15610803  0.039976211   -6.0906967    141.50019    141.32657    5.4302063 
  146400       585600    9639.7304   -37532.721    269.47169 -0.047672965   -27892.991    3203.5273   -4.1206892   0.10165537  0.024751011   -4.1220172    141.42019    141.30282    4.9803669 
  146600       586400    9847.6713   -37474.058    275.28453 -0.023517516   -27626.387    2935.6734   -5.5379826   0.14159389  0.031818456   -5.5398838    141.34019    141.18231    4.5516348 
  146800       587200    9843.5263   -37464.298    275.16866  0.020473737   -27620.772    2929.2467   -6.4310654   0.16811442  0.037794447   -6.4333734    141.26019    141.07678    3.9862036 
  147000       588000    9824.0202   -37360.671    274.62338 -0.0081101931   -27536.651    2845.0322   -5.5833097   0.14330855  0.031925641   -5.5852398    141.18019    141.02101    3.4857988 
  147200       588800    10019.705   -37395.808    280.09361  0.048592761   -27376.103    2682.6989   -11.355852   0.28688911  0.063452524   -11.359652    141.10019    140.77603    2.7365284 
  147400       589600    9808.6997   -37423.923    274.19511  -0.06731788   -27615.223    2920.9332    -3.740235  0.093042995  0.021475888   -3.7414537    141.02019    140.91369     2.111713 
  147600       590400    9861.3937   -37536.612    275.66813 0.0011982529   -27675.218    2979.6697   -3.2696895  0.079725681  0.017460309   -3.2707079    140.94019    140.84714    1.7350367 
  147800       591200    9877.6984   -37584.894    276.12391 -0.065487971   -27707.196    3011.9973   -4.5449706   0.10807971  0.018452328   -4.5462929    140.86019     140.7307    1.3925574 
  148000       592000    9850.4003   -37391.998    275.36082 -0.011718915   -27541.597    2848.5591  -0.60509618  0.014289627 0.0025422633  -0.60527022    140.78019     140.7633    1.1935743 
  148200       592800    9655.9598   -37432.819    269.92537 -0.018341602   -27776.859    3084.0704  -0.93255786  0.022212166 0.0032363391  -0.93282797    140.70019    140.67394    1.1702892 
  148400       593600    9745.7326   -37392.165    272.43491   -0.0231125   -27646.432    2953.1005    1.0315271 -0.024770846 -0.004325745    1.0318335    140.62019    140.65007    1.2184024 
  148600       594400    9816.2598   -37438.013    274.40644 0.0074413986   -27621.753    2929.3597   0.96800291 -0.023537956 -0.0039588109   0.96829713    140.54019    140.56826    1.3705155 
  148800       595200    9733.7559   -37319.689    272.10011 -0.066845822   -27585.933     2893.711     2.847962 -0.071652705 -0.012268944    2.8488896    140.46019    140.54199    1.4492307 
  149000       596000    9803.4478   -37515.399    274.04829 -0.0028660077   -27711.952      3018.74    4.5440386   -0.1175398  -0.02367327    4.5456202    140.38019    140.51047     1.828169 
  149200       596800    9784.2824   -37502.664    273.51254 -0.0025943794   -27718.381    3024.4536            0            0            0            0    140.30019    140.29971      2.01727 
  149400       597600    9888.8867    -37409.25    276.43668 -0.041575146   -27520.363    2827.4435  -0.57615813  0.015367639  0.002615723  -0.57636898    140.22019    140.20412    2.0841121 
  149600       598400    9775.8135   -37330.428     273.2758 -0.070098266   -27554.615    2861.0665    6.1981035  -0.16887821 -0.026991682    6.2004625    140.14019    140.31775    2.2917546 
  149800       599200    9852.9148   -37405.712    275.43111 -0.061340799   -27552.797    2858.6597    8.8937167  -0.23558903 -0.034550345    8.8969035    140.06019    140.31479    2.8132457 
  150000       600000    9763.7901   -37578.189    272.93969  0.082237557   -27814.399    3120.0702    7.7269754   -0.2018751 -0.032353454    7.7296798    139.98019    140.20144    3.4382571 
  150200       600800    9786.4949   -37337.637    273.57439  0.018048225   -27551.142    2856.4867    11.013766  -0.28943929  -0.03986296     11.01764    139.90019    140.21538    4.0745605 
  150400       601600    9967.1114   -37334.471    278.62339 -0.026154543    -27367.36      2675.99    9.3485664  -0.24546602 -0.034625665    9.3518525    139.82019    140.08779    4.8540404 
  150600       602400    9884.8114   -37359.303    276.32276 -0.083630628   -27474.492    2786.3364    6.2317901  -0.16210537  -0.02521729    6.2339492    139.74019     139.9187    5.4189912 
  150800       603200    9809.7661   -37304.664    274.22492 -0.065844525   -27494.898    2807.0914    4.0398476  -0.10502582 -0.015916681    4.0412439    139.66019    139.77606     5.888685 
  151000       604000    9848.9662   -37473.954    275.32073  0.029137746   -27624.988    2934.9719   0.23596869 -0.0060927223 -0.00086659195   0.23604892    139.58019    139.58734    6.1733101 
  151200       604800    9832.3853   -37524.951    274.85722 -0.009721099   -27692.566    3002.1678   -3.9958497   0.10405084  0.012939024   -3.9972252    139.50019    139.38639    6.0526291 
  151400       605600     9834.669   -37455.735    274.92106   0.12921789   -27621.066    2930.8399    -0.269185 0.0071818055 0.0010640099  -0.26928289    139.42019     139.4129    5.8902835 
  151600       606400    9778.3625   -37508.055    273.34705   0.13780332   -27729.692    3040.1646   -1.6738453  0.043053405  0.005739788   -1.6744088    139.34019    139.29275    5.8885219 
  151800       607200    9931.7459   -37405.792    277.63477 -0.017667725   -27474.046    2785.5911  -0.47974338  0.013346577 0.0019166182  -0.47993282    139.26019    139.24688    5.7621922 
  152000       608000    9775.5004   -37285.362    273.26704 -0.087347569   -27509.862    2823.0581    4.4068562  -0.12358589 -0.018533655    4.4086278    139.18019    139.30655    6.0170854 
  152200       608800    9960.9184   -37304.782    278.45027  0.023851477   -27343.864    2655.2084   0.59486548 -0.016160917 -0.002287105   0.59508936    139.10019    139.11759    6.2212411 
  152400       609600    9837.5569   -37429.411    275.00179 -0.054580145   -27591.854     2903.089  -0.12819032 0.0035316999 0.00043190687  -0.12823969    139.02019    139.01693    6.2587392 
  152600       610400     9743.172   -37342.407    272.36333 -0.0037989844   -27599.235    2910.4275    2.4805981  -0.06766271 -0.0088782076    2.4815366    138.94019    139.01149    6.3178685 
  152800       611200    9896.2461   -37388.367     276.6424 -0.0012717675   -27492.121    2803.2239    2.0821084 -0.056334524 -0.009096835    2.0828903    138.86019     138.9201    6.6164196 
  153000       612000    9941.9474   -37426.079    277.91995 -0.0089808466   -27484.132    2794.8777   -3.0862005  0.082023121  0.012911524   -3.0873173    138.78019    138.69238    6.5036123 
  153200       612800    9814.7898   -37404.164    274.36535 -0.084047344   -27589.374    2899.5876   -8.7864928   0.24227743  0.040397998   -8.7899252    138.70019    138.44945    6.0337596 
  153400       613600    9864.2749   -37587.419    275.74867  0.025353874   -27723.144    3033.0936    -4.843547   0.13502482  0.026665672   -4.8455021    138.62019    138.48215    5.4616107 
  153600       614400    9785.7824   -37505.497    273.55447  0.036923825   -27719.714    3029.5268   -3.5032763  0.093499629  0.018604191   -3.5045732    138.54019    138.44046    5.2837649 
  153800       615200    9802.4189   -37454.565    274.01953 -0.023910959   -27652.146    2961.2396   -6.3492629   0.17188084  0.031728403   -6.3516682    138.46019    138.27912    4.8561491 
  154000       616000    9738.5408   -37507.343    272.23387 -0.0028313254   -27768.803    3078.5211   -1.1639981  0.032151717 0.0057289977   -1.1644561    138.38019    138.34732    4.5483048 
  154200       616800    9766.9531   -37569.272    273.02811 -0.011512223   -27802.319    3112.1174  -0.60258534  0.016867047 0.0029718188  -0.60282868    138.30019    138.28337    4.4307373 
  154400       617600    9732.6298   -37476.278    272.06863 -0.0029072747   -27743.648    3053.3381   -3.6667097   0.10132713  0.018511599   -3.6681562    138.22019    138.11579     4.343592 
  154600       618400    9926.3564   -37439.088    277.48412 -0.032556419   -27512.732    2822.0067   -2.0646285   0.05850248  0.010541297   -2.0654841    138.14019    138.08158    3.9920636 
  154800       619200    9826.6626   -37512.834    274.69725  0.020188659   -27686.171    2995.5335  -0.39973798  0.011178844 0.0014582499  -0.39989692    138.06019    138.04917    3.8715142 
  155000       620000    9902.0427   -37518.618    276.80444 0.0042455786   -27616.575    2925.0146   -4.1696139   0.11642008  0.014798922   -4.1712651    137.98019    137.86141     3.570493 
  155200       620800    9708.4389   -37548.784    271.39239  -0.10988515   -27840.345    3148.0786    -2.945837  0.083879559  0.007621988   -2.9470408    137.90019    137.81639     3.324201 
  155400       621600    9835.7241   -37505.839    274.95056  0.040084977   -27670.115    2977.0363   -5.1191441   0.14006262  0.021207969   -5.1211038    137.82019    137.67427    2.9770123 
  155600       622400    9675.1364   -37640.451    270.46144  0.068799502   -27965.315    3272.5026     -2.73484  0.074812603  0.011370691   -2.7358867    137.74019    137.66242    2.6634826 
  155800       623200    9922.4728   -37494.911    277.37555  0.059222547   -27572.438    2879.7159   -3.4080605  0.091317866  0.013437498   -3.4093102    137.66019    137.56318    2.4763488 
  156000       624000     9837.431   -37485.692    274.99827  0.039724151   -27648.261    2956.6216   -2.8215976  0.077268739  0.014249136   -2.8226913    137.58019    137.49994    2.1339208 
  156200       624800    9780.6359   -37508.462     273.4106 0.0055663511   -27727.827    3035.4473   0.31154997 -0.0084970827 -0.0015498845   0.31166967    137.50019     137.5095    2.0829939 
  156400       625600    9705.2309   -37514.275    271.30271 -0.0022176685   -27809.044    3116.0836     2.995125 -0.082346491 -0.015407045    2.9962964    137.42019     137.5062    2.1789931 
  156600       626400    9911.0216   -37630.085    277.05544 -0.025981063   -27719.063    3025.4285   -1.8329793  0.051622273 0.0093216264   -1.8337298    137.34019     137.2882    2.3174446 
  156800       627200    9789.1276   -37523.837    273.64798 -0.073424692    -27734.71    3041.3775    1.5041023 -0.042317637 -0.0076707866     1.504717    137.26019    137.30358     2.287052 
  157000       628000    9863.4489   -37621.299    275.72558 -0.051133383    -27757.85    3064.2485    2.9056834 -0.082930831 -0.017124389     2.906917    137.18019    137.26365    2.4475542 
  157200       628800    9958.3417   -37443.613    278.37824   0.05479511   -27485.271    2791.0238    3.3611798 -0.096897903 -0.016627358    3.3626174    137.10019    137.19667    2.5783294 
  157400       629600    9886.5832   -37356.908    276.37228 -0.023515416   -27470.325    2777.0683    6.5024567  -0.18381119 -0.023045966     6.505095    137.02019    137.20645    2.8872833 
  157600       630400    9865.3684   -37465.864    275.77924 -0.042888969   -27600.496    2909.3553    6.5864552  -0.18624876 -0.023146526    6.5891286    136.94019    137.12885    3.4252999 
  157800       631200    9809.3995   -37513.773    274.21467 -0.014661988   -27704.373    3010.8482    7.3335932  -0.20649708 -0.032071812      7.33657    136.86019    137.07021    3.8707666 
  158000       632000    9807.6239   -37541.161    274.16503   0.04112427   -27733.537     3039.289    8.2721927  -0.23312156 -0.035159672    8.2755516    136.78019    137.01704    4.5313336 
  158200       632800    9899.5543   -37334.299    276.73488  0.022119769   -27434.745     2742.687    1.3698656 -0.038581744 -0.0062366756     1.370423    136.70019    136.73975    4.9293342 
  158400       633600    9822.8975   -37698.977      274.592 -0.092806637    -27876.08    3184.7787    3.6823845  -0.10110303 -0.017586086    3.6838142    136.62019    136.72584    5.0140865 
  158600       634400    9938.0738   -37571.211    277.81167  -0.03589626   -27633.137    2942.1841    2.4484184 -0.067483215  -0.01149722    2.4493752    136.54019    136.61057    5.3135779 
  158800       635200    9857.2962   -37511.369    275.55359 -0.0013010841   -27654.073    2962.3022  -0.37809053  0.010559014 0.0021260437  -0.37824392    136.46019    136.44978    5.4006002 
  159000       636000    9762.2831   -37530.389    272.89756  0.055837703   -27768.106    3075.6445    3.7492612   -0.1035118  -0.01663406    3.7507267    136.38019    136.48776    5.5958966 
  159200       636800    9868.1801   -37504.659    275.85784 0.00040025636   -27636.479    2945.6756   0.82198815 -0.022659852 -0.0044341928   0.82231238    136.30019    136.32409    5.7585508 
  159400       637600    9901.8725   -37583.507    276.79969  0.023747688   -27681.634    2992.1658    3.0043363 -0.087646455  -0.01603557    3.0056573    136.22019    136.30647    5.8979557 
  159600       638400    9855.3457   -37502.841    275.49906 -0.012670021   -27647.496    2959.2241   -1.5778851   0.04594037 0.0069205312   -1.5785689    136.14019    136.09549    6.0513977 
  159800       639200    9807.7187     -37573.7    274.16768   0.14760071   -27765.981    3075.7356   -3.1886614  0.093163855  0.013966928   -3.1900527    136.06019    135.96945    5.8044326 
  160000       640000    9878.4457   -37669.401    276.14481   -0.0556039   -27790.955    3100.3938    0.9878912 -0.029430294 -0.0036245249   0.98833613    135.98019    136.00883    5.7239748 
  160200       640800    9835.5681    -37493.21     274.9462  0.019969132   -27657.642    2966.5512   -2.6136323  0.078088797 0.0076871516   -2.6148099    135.90019    135.82588    5.6553119 
  160400       641600    9855.1021   -37517.823    275.49225 -0.072719659   -27662.721    2971.4256   -2.1629765  0.064630384 0.0085952889    -2.163959    135.82019    135.75876    5.4243358 
  160600       642400    9929.5873   -37492.528    277.57443 -0.0068886116    -27562.94     2870.258   -3.5072392   0.10661715  0.018008208   -3.5089055    135.74019    135.64034    5.2223918 
  160800       643200    9949.5783   -37583.493    278.13327  0.071402409   -27633.914    2940.6827   -4.1778484   0.12470776  0.019957748   -4.1797569    135.66019    135.54117     4.805994 
  161000       644000    9800.7118   -37593.582    273.97181 -0.016181999    -27792.87    3100.8104   -7.0960802   0.20725545  0.039930587   -7.0992186    135.58019    135.37776    4.3785133 
  161200       644800    9717.3057   -37391.824    271.64025 -0.038262908   -27674.518    2981.0558   -12.118728   0.35312959  0.062933822   -12.124035    135.50019    135.15419    3.5021749 
  161400       645600    9846.3384   -37375.252    275.24727 -0.026006453   -27528.914    2835.9924   -9.3350953   0.27200422  0.044874323   -9.3391651    135.42019    135.15376    2.5508697 
  161600       646400      9724.26   -37527.508    271.83466 -0.063141997   -27803.248    3109.1553   -7.3278141   0.20941772  0.038096345   -7.3309049    135.34019    135.13114    1.8234161 
  161800       647200    9909.7432   -37591.195     277.0197  0.038463425   -27681.452    2986.7096   -1.9425796  0.057075254  0.008896713   -1.9434382    135.26019    135.20506    1.4919171 
  162000       648000    9916.8962   -37548.718    277.21966 -0.049856651   -27631.821     2937.208  -0.43486102  0.013025562  0.001890753  -0.43506016    135.18019    135.16816    1.3648065 
  162200       648800     9851.585   -37488.579    275.39393  0.035939878   -27636.994    2943.6832    2.9516912 -0.087639454 -0.012079237    2.9530167    135.10019    135.18496    1.5157036 
  162400       649600    9846.8324   -37479.718    275.26108   -0.0325562   -27632.886    2938.7724    6.9671627  -0.20575513 -0.033000288    6.9702784    135.02019    135.21974    1.9960547 
  162600       650400    9874.6539    -37457.78    276.03881 -0.0065502854   -27583.126    2890.4264    3.8219149  -0.11598837  -0.01829849    3.8237183    134.94019    135.04984    2.4651739 
  162800       651200    9822.5965   -37535.068    274.58358 -0.055450959   -27712.472    3018.4266    4.7907808  -0.14464892 -0.021813171    4.7930136    134.86019    134.99753    2.9165118 
  163000       652000    9831.8301   -37472.679     274.8417   0.12776468   -27640.849    2946.3259    1.3930379 -0.042699326 -0.0078162098     1.393714    134.78019    134.82041    3.2235952 
  163200       652800    9819.4668    -37398.98    274.49609   0.03606992   -27579.513    2886.0224    2.1860308  -0.06685558 -0.012748735    2.1870901    134.70019    134.76308    3.4443508 
  163400       653600    9921.8758   -37363.912    277.35886  0.082381246   -27442.037    2751.6043    4.8230191  -0.14911741 -0.030402346    4.8254195    134.62019    134.75846    3.7636344 
  163600       654400     9776.963   -37473.685    273.30793 -0.081751609   -27696.723    3007.9093    2.8291741 -0.085887854 -0.017904562    2.8305342    134.54019    134.62146    4.1827256 
  163800       655200    9905.7905   -37457.998    276.90921 -0.0032403689   -27552.207    2862.4596    2.1431241 -0.062658437 -0.013213119    2.1440806    134.46019    134.52185    4.3360465 
  164000       656000     9870.097   -37227.511    275.91142   0.11278911   -27357.414    2666.5595    4.4368901  -0.12768903 -0.024575861    4.4387952    134.38019    134.50741    4.5621286 
  164200       656800    9708.4661   -37659.243    271.39315  0.052487762   -27950.777    3257.9418    6.1079286  -0.17997519 -0.032668542    6.1106669    134.30019    134.47518    4.9152394 
  164400       657600    9859.0612   -37663.621    275.60293  0.045239855    -27804.56    3112.9399    3.9707172  -0.12002292 -0.016153178    3.9725636    134.22019    134.33409    5.3123388 
  164600       658400    9899.8935   -37646.499    276.74436 -0.091814551   -27746.606    3058.1388    3.7436583  -0.11096887 -0.014978439    3.7453326    134.14019     134.2476    5.6530623 
  164800       659200    9854.3012   -37421.695    275.46986  0.015418149   -27567.394    2879.0207   0.45489132    -0.013781 -0.0022132128    0.4551054    134.06019    134.07359    5.8063764 
  165000       660000     9906.149   -37382.072    276.91923  0.041984777   -27475.923    2786.6029     2.661595  -0.08234755 -0.012463562    2.6628977    133.98019    134.05667    5.8728001 
  165200       660800    9782.9418   -37344.248    273.47506  0.062224478   -27561.307    2870.3141   -1.4866405  0.045710981 0.0080812576    -1.487365    133.90019     133.8581    5.9922702 
  165400       661600    9954.0906   -37491.178    278.25941  0.012038547   -27537.088     2847.412   -4.0801792   0.12529248  0.025024295   -4.0821792    133.82019    133.70396    5.8178589 
  165600       662400    9851.9078   -37645.865    275.40296 0.00044658636   -27793.957    3104.1259   -5.7715671   0.17737276  0.031079093   -5.7743756    133.74019    133.57561    5.3576872 
  165800       663200    9794.6968   -37575.891    273.80367 -0.049041485   -27781.194    3089.1513   -2.8366274  0.089000108  0.015219081   -2.8380641    133.66019     133.5795    5.0077906 
  166000       664000     9862.718   -37638.083    275.70515 -7.4610578e-05   -27775.365     3083.817    1.0281343 -0.032187802 -0.0046593201    1.0286486    133.58019    133.60998    4.9550943 
  166200       664800    9987.3415   -37552.442    279.18891 -0.021073584     -27565.1    2874.3816   -1.5514283  0.048481247   0.00783422   -1.5522054    133.50019    133.45624    4.8773699 
  166400       665600    9767.6095   -37496.254    273.04646  -0.04881138   -27728.645    3037.3475    1.3331373 -0.042056372 -0.0064238592    1.3338159    133.42019     133.4587    4.8336206 
  166600       666400     9903.028   -37559.738    276.83199 0.0091514067    -27656.71     2964.797 -0.039296791 0.0012222497 0.00020463876 -0.039316327    133.34019    133.33947    4.9405008 
  166800       667200    9889.2823   -37584.434    276.44774 -0.082375185   -27695.152    3003.5063   -1.5203396  0.047184077 0.0080696465    -1.521093    133.26019    133.21713    4.7830868 
  167000       668000    9895.0382   -37661.438    276.60864 -0.008298424     -27766.4    3075.1443   -1.5294494  0.046509089 0.0096589732   -1.5301868    133.18019    133.13687    4.5496522 
  167200       668800    9769.6426   -37578.848    273.10329 -0.049646893   -27809.206    3117.3972   -4.7809353   0.14538769   0.03062448   -4.7832434    133.10019    132.96393    4.2238245 
  167400       669600    9838.8035   -37468.752    275.03664  0.031845653   -27629.948    2938.2858   -2.8568032  0.087978072  0.018495853   -2.8582174    133.02019    132.93893    3.8574578 
  167600       670400    9904.4785   -37541.793    276.87253 -0.028861469   -27637.314    2946.1543   -3.9770003   0.12250691  0.025012908   -3.9789654    132.94019    132.82691     3.590351 
  167800       671200    9679.4538   -37530.932    270.58213 -0.0038645274   -27851.479    3157.8751   -3.1014604  0.094176341   0.01860539   -3.1029456    132.86019    132.77194    3.1741568 
  168000       672000    9809.2747   -37609.459    274.21118 -0.059357645   -27800.185    3104.6775    -3.298616   0.10276897  0.021112155    -3.300284    132.78019     132.6863     2.895475 
  168200       672800    9798.6464   -37603.949    273.91407 -0.062131063   -27805.303    3109.6777   -1.3808234   0.04330698 0.0084331249   -1.3815281    132.70019    132.66112    2.8082266 
  168400       673600    9873.8557   -37497.164     276.0165 0.0056146844   -27623.308    2929.0592  -0.61380143  0.019123769 0.0038613302  -0.61411141    132.62019    132.60305    2.7019784 
  168600       674400    9798.4493   -37495.158    273.90856 -0.049322819   -27696.709    3004.8172    2.1646421 -0.067539868 -0.015654286    2.1657521    132.54019    132.60247    2.7779608 
  168800       675200    9798.8556   -37545.534    273.91992  -0.01697889   -27746.678    3054.6292    4.0200006  -0.12820088 -0.027379524    4.0221375    132.46019    132.57551    2.9949728 
  169000       676000    9874.8201   -37582.183    276.04346  0.059692618   -27707.363    3014.2448    1.9941145 -0.064396548 -0.012625048     1.995194    132.38019     132.4376    3.2812406 
  169200       676800    9923.2966   -37492.769    277.39858  0.097359709   -27569.473    2875.5519    3.1767629  -0.10128108 -0.020193674    3.1784412    132.30019     132.3914    3.4881293 
  169400       677600     9762.314   -37486.955    272.89843 -0.024366208   -27724.641    3031.2421    3.7280484  -0.11968814 -0.024916732    3.7300524    132.22019    132.32716    3.7322268 
  169600       678400    9883.3165   -37687.001    276.28096  -0.07219424   -27803.684    3110.7543   0.51731037 -0.016719878 -0.0035485472   0.51759266    132.14019    132.15538    3.9612163 
  169800       679200    9948.8214   -37506.435    278.11211  0.043288484   -27557.614    2864.2553   0.38754552 -0.012597175 -0.0023359616   0.38775724    132.06019    132.07167    4.0261129 
  170000       680000    9933.1141   -37557.458    277.67302  0.072708892   -27624.344    2930.6597   -1.9592465  0.062287326  0.011531692   -1.9602703    131.98019    131.92458      4.00438 
  170200       680800    9791.4079   -37631.712    273.71173 -0.039480567   -27840.304    3147.7128    1.9206438 -0.060649277 -0.010374416    1.9216291    131.90019     131.9555    3.8807645 
  170400       681600    9932.7691   -37606.283    277.66338 -0.085587531   -27673.514    2980.2435   0.68220386 -0.022532322 -0.0029663867   0.68258231    131.82019    131.84009    3.9597793 
  170600       682400    10014.586   -37614.467    279.95052 -0.012549188   -27599.881    2906.0292    4.3938258  -0.14774984 -0.021974901    4.3963642    131.74019     131.8662    4.1699863 
  170800       683200    9908.1336   -37511.776    276.97471  -0.01885368   -27603.642    2910.1399    6.6755669  -0.22059602 -0.036036381     6.679308    131.66019    131.85143    4.5396295 
  171000       684000    9934.3097   -37569.138    277.70644 -0.073106975   -27634.829    2942.3432     4.891459  -0.16202763 -0.024787181    4.8942046    131.58019    131.72043    5.0351564 
  171200       684800    9986.2048   -37601.179    279.15713 -0.0020661073   -27614.974    2924.8631    4.4633175   -0.1482412 -0.024827269    4.4658476    131.50019    131.62819    5.3997879 
  171400       685600     9848.897   -37491.337    275.31879 -0.013305093    -27642.44    2951.3602    7.6084217  -0.24824278 -0.040984716    7.6125807    131.42019    131.63809    5.9719497 
  171600       686400    9771.3836   -37683.388    273.15196 -0.0030338113   -27912.005     3221.455    3.6235292   -0.1172233 -0.020297743    3.6254817    131.34019    131.44418    6.4155491 
  171800       687200    9883.9116   -37691.776     276.2976 -0.065246354   -27807.864    3117.0009    2.3255845 -0.073778537 -0.012544915    2.3267884    131.26019    131.32707    6.6018174 
  172000       688000    9819.1737   -37558.006     274.4879  0.077876913   -27738.832    3048.4789   0.18239309 -0.0058984717 -0.0010605495   0.18249153    131.18019    131.18581    6.7250345 
  172200       688800    9842.6209   -37581.388    275.14335  0.022285964   -27738.768    3049.4749   -2.5052983  0.080675069  0.012155341   -2.5066264    131.10019    131.02897    6.6164388 
  172400       689600    9777.6797    -37622.27    273.32797  -0.13298034    -27844.59    3156.1228   -3.8307086   0.12535039  0.016536512   -3.8327946    131.02019    130.91108    6.4211217 
  172600       690400    9965.6935   -37588.659    278.58375  0.054137242   -27622.966    2933.4327   -4.7128607   0.14749539   0.02437923   -4.7152312    130.94019    130.80587    6.2418212 
  172800       691200     9838.015   -37584.035    275.01459 0.0061739433    -27746.02     3052.345    -11.84529   0.37408014  0.065388093   -11.851375    130.86019    130.52198    5.6839375 
  173000       692000    9804.4607   -37756.045    274.07661 -0.061051264   -27951.585    3256.9293   -7.7536504   0.25056521  0.036655434   -7.7577845    130.78019    130.55894    4.8794061 
  173200       692800    9827.6725   -37862.886    274.72548 0.0091573161   -28035.213    3341.2954  -0.58464703  0.018512194 0.0024058982  -0.58494499    130.70019    130.68388    4.6159923 
  173400       693600    9756.9857   -37839.283    272.74948 -0.062278583   -28082.297    3390.2582   -1.1207919  0.035738857 0.0062070103   -1.1213788    130.62019    130.58855    4.5680721 
  173600       694400    9777.4051   -37621.502    273.32029  0.015238118   -27844.097    3152.0335   -3.6314364   0.11834382  0.020119342   -3.6334199    130.54019    130.43678    4.3617529 
  173800       695200    9910.5154    -37682.26    277.04129  -0.10535385   -27771.745    3079.5428   -2.5610252  0.083755234  0.012804504   -2.5624264    130.46019    130.38738    4.1843377 
  174000       696000    9820.7117   -37675.139     274.5309   0.01029282   -27854.427    3161.9967   -3.2571874    0.1099447  0.018395904   -3.2590943    130.38019    130.28747    3.9673137 
  174200       696800    9788.6456   -37692.789    273.63451  0.020066832   -27904.143     3210.068   -3.6566397   0.12080377  0.020246857   -3.6586907    130.30019    130.19606    3.6328211 
  174400       697600     9791.613   -37620.471    273.71746 -0.042048872   -27828.857    3133.6705   -10.768355   0.35466312  0.068104144    -10.77441    130.22019    129.91275    3.0492242 
  174600       698400    9775.0492   -37602.637    273.25443 -0.063837604   -27827.588    3132.5325   -8.9340031   0.29414142  0.047975903   -8.9389727    130.14019    129.88519    2.2379686 
  174800       699200    9803.6309   -37651.212    274.05341 -0.022013574   -27847.581    3153.1217   -4.4907705   0.14205099  0.023636905   -4.4930788    130.06019    129.93222    1.8027899 
  175000       700000    9752.9769   -37679.703    272.63742 -0.038219791   -27926.726    3232.2089   -3.9872386   0.12744258  0.016755886   -3.9893099    129.98019    129.86661    1.3111876 
  175200       700800    9788.2628   -37568.201    273.62381 0.0019007624   -27779.939     3084.326   0.52513694 -0.016822174 -0.0023344663    0.5254115    129.90019     129.9156    1.1842133 
  175400       701600    9797.7443   -37566.979    273.88886  0.044792187   -27769.234    3072.1403    1.2038371 -0.037708665 -0.004572561    1.2044363    129.82019      129.855    1.1524563 
  175600       702400    9767.5798   -37680.168    273.04563  -0.03149767   -27912.588    3216.5369    1.1065668 -0.035085832 -0.0047663376    1.1071331    129.74019    129.77222    1.3290076 
  175800       703200    9927.9089   -37746.322    277.52752  -0.11478842   -27818.413    3123.2375    3.0140446 -0.099677993 -0.015986535    3.0157348    129.66019    129.74676    1.5506705 
  176000       704000    9956.1763   -37801.581    278.31771  0.058092666   -27845.405    3149.6881    5.1865406  -0.17454402 -0.024878449    5.1895364    129.58019    129.72886    1.7872032 
  176200       704800    9896.2856   -37480.229    276.64351  0.059357852   -27583.943    2888.7803    4.8789816  -0.16131587 -0.023990461    4.8817066    129.50019    129.64007    2.1571456 
  176400       705600     9849.272   -37699.774    275.32928 -0.083777804   -27850.502    3156.2575    6.1028996  -0.20439145 -0.031465846    6.1064023    129.42019    129.59506    2.6834594 
  176600       706400    9858.2139   -37640.721    275.57924 -0.078615185   -27782.507    3087.4053    6.3819952  -0.21616955 -0.033885155    6.3857451    129.34019    129.52304    3.1083968 
  176800       707200    9710.0967   -37703.405    271.43873 -0.016249201   -27993.309    3298.3401    7.5191957  -0.25453806 -0.043528162    7.5236287    129.26019    129.47555    3.6631065 
  177000       708000    9737.2717   -37837.403    272.19839 -0.052100857   -28100.131    3404.4101    7.6382881  -0.25705962 -0.046181818    7.6427519    129.18019    129.39896     4.215146 
  177200       708800    9962.1543   -37535.833    278.48482  0.088638096   -27573.679    2880.2014    6.6464224  -0.22797188 -0.034958533    6.6504228    129.10019     129.2906    4.7066475 
  177400       709600    9838.2051   -37594.563    275.01991  0.043794041   -27756.358    3065.2808    6.8416734  -0.23416738 -0.036538421    6.8457771    129.02019    129.21619    5.2036476 
  177600       710400    9881.6614   -37551.481     276.2347 -0.023076916    -27669.82      2980.19    8.2574289  -0.28479622 -0.036660117    8.2624201    128.94019    129.17666    5.8717475 
  177800       711200    9783.7781   -37644.882    273.49844  0.044716691   -27861.104    3170.5735    5.7402968  -0.19471473 -0.024837794     5.743652    128.86019     129.0247    6.3944538 
  178000       712000    9859.6641   -37601.416    275.61978  0.031650704   -27741.752    3049.8766    4.9220317  -0.16487266 -0.017073566    4.9248219    128.78019     128.9213    6.7591935 
  178200       712800    9897.7508   -37635.714    276.68446  0.093288376   -27737.963    3049.7404    2.4875603 -0.084089627 -0.011145339    2.4890061    128.70019    128.77171    7.0814041 
  178400       713600     9707.708    -37537.44    271.37196 -0.028786335   -27829.732    3143.3008    1.2162293 -0.041169473 -0.0059419046    1.2169404    128.62019    128.65536    7.2004017 
  178600       714400    9732.3807   -37579.741    272.06166 -0.0035824539   -27847.361    3160.8792   -1.7142075  0.057483437  0.009144317   -1.7151955    128.54019    128.49159    7.2311924 
  178800       715200    9949.9156   -37559.223     278.1427 -0.0032910272   -27609.308    2919.8571   -3.7487534   0.12288556  0.018955979   -3.7508148    128.46019    128.35343    6.9935566 
  179000       716000    9767.0197   -37738.916    273.02997  0.055548289   -27971.896    3278.8856   -6.4555769   0.21835506  0.038697712   -6.4593846    128.38019    128.19604    6.6135427 
  179200       716800    9802.9411   -37763.271    274.03413  0.021274819    -27960.33     3267.161   -5.1465548   0.17228539  0.028785526   -5.1495181    128.30019    128.15346    6.0985189 
  179400       717600    9797.9333   -37675.663    273.89414 -0.041541059   -27877.729    3183.9469    -9.808757   0.32595002  0.055635082   -9.8143289    128.22019    127.94018     5.496672 
  179600       718400    9869.7488   -37593.215    275.90169 -0.0097300836   -27723.466    3031.6067   -6.6033498   0.22290894  0.033942031   -6.6071982    128.14019    127.95181    4.7526433 
  179800       719200    9844.7397   -37708.857    275.20258 -0.073604208   -27864.117    3171.8482   -4.3800051   0.14568602  0.022813562   -4.3824867    128.06019    127.93538    4.3632927 
  180000       720000    9679.5311   -37672.051    270.58429  -0.14631098    -27992.52    3299.1416    -3.485653   0.11538598  0.021446536   -3.4876282    127.98019    127.88095    3.9499747 
  180200       720800    9805.4983   -37725.991    274.10561  0.020363898   -27920.493    3225.4163   -4.1575001   0.13912455  0.020519973   -4.1598779    127.90019    127.78174    3.6290521 
  180400       721600     9797.427   -37761.852    273.87999  0.056074413   -27964.425    3268.7225   -3.6947614   0.12332685  0.016468829   -3.6968558    127.82019    127.71497    3.2456514 
  180600       722400    9838.8008   -37775.704    275.03656  -0.06247875   -27936.904    3242.0705  -0.82199446  0.027592834 0.0039626841  -0.82246699    127.74019    127.71709    3.1194369 
  180800       723200    9877.2749   -37827.167    276.11208 -0.044118506   -27949.892    3256.3381   -6.9213639   0.23359616  0.027951698   -6.9253611    127.66019    127.46272    2.8538689 
  181000       724000    9863.9553     -37631.8    275.73974  0.062548624   -27767.845    3073.8964   -4.5437885   0.15594218  0.016277448   -4.5464929    127.58019    127.45069    2.4453887 
  181200       724800    9657.3857   -37558.533    269.96523  0.062530484   -27901.147    3206.0849   -4.0968599   0.14037278  0.017777525   -4.0993025    127.50019    127.38347    2.1109679 
  181400       725600    9816.6016   -37552.618      274.416 -0.017090872   -27736.017    3040.9462   -3.6862121   0.12639445  0.018553371    -3.688425    127.42019    127.31521    1.7109493 
  181600       726400    9763.2865   -37518.731    272.92561 -0.027237408   -27755.445    3061.8072   -3.4481249   0.11816871   0.01496274   -3.4501816    127.34019    127.24202    1.4829812 
  181800       727200    9925.2328   -37559.092    277.45271 -0.099122813   -27633.859    2940.7123   -4.0731213   0.14147998  0.018397455   -4.0756192    127.26019    127.14415    1.2496906 
  182000       728000    9870.8912   -37447.912    275.93363  0.013351385   -27577.021    2882.6622   -2.9958499   0.10421467   0.01652293   -2.9977076    127.18019    127.09494   0.93728814 
  182200       728800    9899.7351   -37725.666    276.73994   0.10686214   -27825.931    3129.6916   0.96527721 -0.033769342 -0.005512038   0.96588346    127.10019    127.12819   0.90861811 
  182400       729600    9721.7443   -37672.976    271.76433  0.042739363   -27951.232    3254.6962    3.0068087  -0.10307856 -0.016258384    3.0086189    127.02019    127.10655    1.0331318 
  182600       730400    9797.7034   -37707.611    273.88771  0.059803663   -27909.908     3212.202    10.835427  -0.37502655 -0.049411127    10.842028    126.94019    127.25036    1.5162191 
  182800       731200    9936.4809   -37678.463    277.76714 -0.091984765   -27741.983     3044.829    12.679259  -0.44241659 -0.068472274     12.68716    126.86019    127.22308    2.4931979 
  183000       732000    9850.4406   -37745.022    275.36194  0.012301138   -27894.581    3198.8542    8.6479011  -0.29485155 -0.045663632    8.6530466    126.78019    127.02782    3.2933346 
  183200       732800    9846.6027   -37558.909    275.25466  0.048217378   -27712.306    3016.5075     8.952926  -0.30437197 -0.050139597    8.9582386    126.70019    126.95654    3.9995047 
  183400       733600    9821.9606   -37727.654    274.56581  0.021423535   -27905.694    3211.6032    9.9938535   -0.3415132  -0.06147005    9.9998759    126.62019     126.9063    4.7084003 
  183600       734400    9705.9731   -37642.303    271.32346 -0.094136677    -27936.33    3244.2943    8.3345035  -0.29051323 -0.054195372    8.3397412    126.54019    126.77887    5.4252292 
  183800       735200    9674.0355   -37663.151    270.43067 -0.0089952476   -27989.115    3298.9899    3.1778936  -0.11081182 -0.021500932    3.1798977    126.46019    126.55145    5.9370029 
  184000       736000    9879.2151   -37640.754    276.16632  0.026091694   -27761.539    3071.6448    2.0439814 -0.073185947 -0.012613282    2.0453301    126.38019    126.43903    6.0905868 
  184200       736800    9884.6308   -37659.884    276.31771 -0.025931669   -27775.253    3085.4629    1.6903963 -0.059666507 -0.010225369    1.6914799    126.30019    126.34892    6.3031697 
  184400       737600    9864.7496    -37782.63    275.76194 -0.059536796   -27917.881    3228.3479    2.4281569 -0.086071534 -0.014722969    2.4297266    126.22019    126.29001    6.5092879 
  184600       738400    9852.9266   -37624.968    275.43144  0.077259366   -27772.041    3082.3185    2.6422386 -0.091730436 -0.014422924    2.6438697    126.14019    126.21613    6.6541618 
  184800       739200    9854.8477   -37597.553    275.48514  0.089243478   -27742.706    3051.9104   0.62263542 -0.022388645 -0.0033804186   0.62304698    126.06019    126.07839    6.8472205 
  185000       740000    9796.7951   -37541.386    273.86232  0.063354024   -27744.591    3054.4872   0.77530063 -0.027483497 -0.0033064962   0.77579465    125.98019    126.00276    6.9324742 
  185200       740800    9920.1671   -37454.904     277.3111   0.06450639   -27534.737    2844.4583    1.4451501 -0.052639311 -0.0074836567    1.4461279    125.90019    125.94191    7.0293866 
  185400       741600    9876.2485   -37661.956    276.08338 -0.0024484109   -27785.707    3096.4927     1.993671 -0.073551359 -0.010496901    1.9950549    125.82019    125.87759    7.2640248 
  185600       742400    9860.5683   -37527.551    275.64506 0.0024303982   -27666.983     2980.189    3.2009504   -0.1183864 -0.016950023    3.2031838    125.74019    125.83211    7.4569032 
  185800       743200    10080.461   -37605.857    281.79199 -0.0025839232   -27525.397    2837.9799   -1.6554401  0.061137785 0.0096765715   -1.6565969    125.66019    125.61326    7.5408264 
  186000       744000    9756.7689   -37502.254    272.74342 -0.035562381   -27745.485    3055.8992   -3.6253465   0.13290462  0.017406946   -3.6278235    125.58019    125.47694    7.3127976 
  186200       744800    9755.4828   -37667.285    272.70747 -0.083671468   -27911.803    3220.1507   -4.2151196   0.15329073  0.019522266   -4.2179512    125.50019    125.38008    6.8864076 
  186400       745600    9933.0113   -37697.118    277.67015   0.11668451   -27764.107    3071.1526   -8.1136869    0.2908346   0.03930147   -8.1189928    125.42019    125.18862    6.2164665 
  186600       746400    9860.0983   -37690.045    275.63192 -0.018380399   -27829.947    3138.6174   -6.8145818   0.24196371  0.036388469   -6.8189732    125.34019    125.14576    5.5672002 
  186800       747200    9911.9238   -37680.898    277.08066 -0.062321235   -27768.974    3077.1295   -11.414846   0.41367676  0.067846228   -11.422541    125.26019    124.93423    4.8068201 
  187000       748000    9932.4567   -37558.051    277.65465 -0.045604445   -27625.594     2932.663   -12.209696   0.43084831  0.072967284   -12.217514    125.18019    124.83152     3.796084 
  187200       748800    9806.0699   -37625.759    274.12159  0.065402147   -27819.689    3124.1923   -9.2702211   0.32165831  0.060901492   -9.2759998    125.10019    124.83556    2.9488333 
  187400       749600    10036.579   -37646.532    280.56532 -0.004098221   -27609.952    2914.0315   -8.2315569   0.29779617  0.048545465    -8.237085    125.02019    124.78525    2.3105156 
  187600       750400    9852.2638   -37651.006    275.41291 -0.079624604   -27798.743    3103.5686   -5.6028423   0.20290934  0.035804963   -5.6066296    124.94019     124.7804    1.8061361 
  187800       751200    9935.9468   -37575.424    277.75221 -0.021873903   -27639.477    2946.3423  -0.18529124 0.0068077222 0.0011987548  -0.18542014    124.86019    124.85529    1.6696783 
  188000       752000    9767.4589   -37471.277    273.04225  -0.15235984   -27703.818    3010.8156   -3.7840249   0.14086204   0.02308543   -3.7867161    124.78019     124.6724    1.5802849 
  188200       752800    9876.1479   -37486.027    276.08057 -0.013133374   -27609.879    2915.3953  -0.31233554  0.011156129 0.0020190825  -0.31254123    124.70019    124.69166     1.358194 
  188400       753600    9798.8148   -37590.429    273.91878 -0.047702525   -27791.614     3095.965    1.1202333 -0.039917238 -0.0079532615    1.1209725    124.62019    124.65262    1.5560365 
  188600       754400    9735.9173   -37549.764    272.16053   0.10121079   -27813.847    3117.7274   -2.0694226  0.074721426  0.014384864   -2.0708211    124.54019    124.48143    1.4762711 
  188800       755200    9843.3518   -37631.411    275.16378  0.016413219   -27788.059    3092.5351  -0.57154563  0.020630023 0.0041506124  -0.57193289    124.46019    124.44425    1.3446746 
  189000       756000    9982.0565   -37520.321    279.04117 -0.034953097   -27538.264    2843.8029    2.7643044  -0.10066373 -0.019819723    2.7662077    124.38019    124.45963    1.5045077 
  189200       756800     9789.672   -37626.859     273.6632  0.020653786   -27837.187      3142.27     3.307813  -0.11941995 -0.022438393     3.310044    124.30019    124.39516    1.7017938 
  189400       757600    9739.0811   -37824.165    272.24897 -0.064989636   -28085.084     3389.266     8.001326  -0.29467168 -0.042570239    8.0068634    124.22019    124.44936    2.2044035 
  189600       758400    9795.2663   -37550.538    273.81959  0.045777471   -27755.272    3060.0203    6.9627785  -0.25343857 -0.038584229    6.9674962    124.14019    124.33966    2.8544219 
  189800       759200    9809.3739   -37699.217    274.21395  0.033008068   -27889.843    3195.9176    9.6669626  -0.35162247 -0.051057247    9.6734901    124.06019    124.33698    3.5399441 
  190000       760000    9843.1613   -37619.988    275.15846  -0.11770182   -27776.827    3084.1275    8.5537383  -0.31160012 -0.038655351    8.5594993    123.98019    124.22515    4.2923822 
  190200       760800    9829.2701   -37613.019    274.77014  0.090136602   -27783.749    3091.4358    5.8442621  -0.21353188 -0.024944847    5.8482149    123.90019    124.06768    4.7546875 
  190400       761600    9942.6262   -37687.963    277.93893 -0.023581066   -27745.336    3053.7855    4.1089073  -0.15350326 -0.018781709    4.1118166    123.82019    123.93807    5.1614299 
  190600       762400    9841.5416   -37766.933    275.11318 -0.033151751   -27925.391    3232.6464    2.2197916 -0.082448767 -0.012295384    2.2213563    123.74019    123.80406    5.3643337 
  190800       763200    9783.0263   -37731.778    273.47743  0.055373052   -27948.752    3255.6253   -2.1963725  0.080564388  0.013766862   -2.1978927    123.66019    123.59779    5.3400407 
  191000       764000    9889.0592   -37608.548     276.4415  0.013157555   -27719.489    3027.3038   -3.7718828   0.14067139  0.026229083   -3.7745962    123.58019    123.47275    5.0946069 
  191200       764800      9904.33   -37677.077    276.86838 -0.031659293   -27772.747     3081.067   -7.6738371   0.28281497  0.047535634   -7.6791939    123.50019    123.28119    4.6500885 
  191400       765600    9829.3272   -37675.252    274.77173 -0.016313721   -27845.924    3153.7699   -5.1186901   0.18873145   0.02496451   -5.1222291    123.42019    123.27424    4.1382846 
  191600       766400    9822.8773   -37635.742    274.59143 0.00046434391   -27812.864    3118.6594   -1.9656009  0.072214379  0.010708263   -1.9669562    123.34019    123.28439    3.9313883 
  191800       767200    9749.5893    -37677.46    272.54272  0.077450688   -27927.871    3233.5272   0.57126766 -0.020950742 -0.0031175208   0.57166021    123.26019    123.27692     3.919365 
  192000       768000    9760.8462   -37609.365     272.8574  -0.13093917   -27848.519    3155.5641     3.778781  -0.13723647 -0.017350037    3.7813121    123.18019    123.28863    4.1426061 
  192200       768800    9891.7136   -37511.333     276.5157 -0.0069015413   -27619.619    2927.9882    2.7608353  -0.10202041 -0.015815263    2.7627649    123.10019    123.17953    4.4245228 
  192400       769600    9792.6202   -37674.043    273.74562   0.03597061   -27881.423     3190.351    3.4128333  -0.12690757 -0.018852005    3.4152441    123.02019    123.11817    4.6920132 
  192600       770400    9968.8653   -37619.944    278.67242 -0.0022553167   -27651.079    2959.3879    2.3128654 -0.085549172 -0.013672893    2.3144874    122.94019    123.00672    4.9932772 
  192800       771200    9841.7273   -37540.983    275.11837  0.043941556   -27699.255    3006.8818    4.3736997  -0.16482677 -0.025266115    4.3768773    122.86019    122.98565    5.2204972 
  193000       772000    9887.8581    -37561.52    276.40792 -0.043618063   -27673.662    2981.2783   0.78308443 -0.029942746 -0.0046030099    0.7836702    122.78019    122.80298    5.4580633 
  193200       772800    9797.0599   -37693.707    273.86973 0.0021584182   -27896.647    3204.2392   -2.6305457  0.098702728  0.015236462   -2.6324408    122.70019    122.62538    5.4275854 
  193400       773600    9770.4051    -37533.23    273.12461   0.12511963   -27762.825    3068.7908   -3.0794156   0.11984346  0.015769551   -3.0817871    122.62019    122.53254    5.2319182 
  193600       774400    9946.2017   -37574.115    278.03888  0.097607025   -27627.913    2933.5974   -4.6821569   0.17590016  0.024852212   -4.6855258    122.54019    122.40672    4.9688971 
  193800       775200    9754.3274   -37532.625    272.67517  -0.06998384   -27778.298    3086.5752   -3.8935769   0.14490753    0.0252864   -3.8963545    122.46019    122.34927    4.4856165 
  194000       776000    9767.8847   -37554.363    273.05415 -0.080016167   -27786.478    3095.2226   0.58814752 -0.022483394 -0.0030066122   0.58858478    122.38019    122.39741    4.3705143 
  194200       776800    9710.5181   -37629.654    271.45051  0.087333469   -27919.136    3226.0847   -0.9602366  0.035933258 0.0055004793  -0.96092444    122.30019    122.27314     4.349374 
  194400       777600    9910.4712    -37567.69    277.04006  0.096687179   -27657.218    2961.9035   -1.3889216  0.052454126 0.0078573777    -1.389934    122.22019    122.18088    4.1498781 
  194600       778400    9784.5644    -37757.35    273.52042 -0.022533139   -27972.786    3277.6654    3.1329832  -0.11835263 -0.015376866    3.1352555    122.14019    122.23017    4.2558429 
  194800       779200    9834.9267   -37673.227    274.92826  -0.16554396     -27838.3     3146.057     1.403326 -0.052781092 -0.0061305231    1.4043316    122.06019    122.10072    4.4924917 
  195000       780000    10015.348   -37591.311    279.97181 0.0068682751   -27575.963    2884.8373 -0.076495333 0.0028696447 0.00031875974 -0.076549803    121.98019     121.9784    4.5741832 
  195200       780800    9861.4722   -37593.047    275.67032  0.047204123   -27731.575    3037.7415    1.2473148 -0.047029277 -0.0060869281    1.2482159    121.90019    121.93625    4.5239092 
  195400       781600    9837.3935   -37755.391    274.99722  0.016026503   -27917.998    3221.4266     0.256704 -0.0098791853 -0.0011929921    0.2568968    121.82019    121.82793    4.5854944 
  195600       782400    9792.8087   -37704.009    273.75089    0.0458302   -27911.201    3214.5722   -6.4475748   0.24994109  0.030598152   -6.4524901    121.74019    121.55623    4.3465503 
  195800       783200    9808.8917   -37558.176    274.20047 -0.0040141926   -27749.284    3055.5882   -2.9139899   0.11423427  0.016380913   -2.9162741    121.66019    121.57727    3.9089333 
  196000       784000    9877.1293   -37679.642    276.10801 -0.056085116   -27802.512    3111.1237   -6.5691865   0.25385534  0.040750455   -6.5742159    121.58019    121.39276    3.5521284 
  196200       784800    9845.2454   -37715.248    275.21671 -0.060890329   -27870.003    3176.1957   -8.9899985   0.34309557  0.058754706    -8.996735    121.50019    121.24354    2.8691094 
  196400       785600    9779.2842   -37742.963    273.37282 0.0016929879   -27963.679    3265.0848   -5.9550447   0.22904998  0.043059664   -5.9596036    121.42019    121.25032    2.3036422 
  196600       786400    9867.5445   -37720.066    275.84007   0.15467716   -27852.521    3151.5668   -5.3944844   0.21478306  0.036840259   -5.3988842    121.34019    121.18634    1.8099119 
  196800       787200    9841.5334   -37792.277    275.11295  0.010944737   -27950.744    3251.8048   -2.0305888  0.081276996    0.0131802   -2.0322575    121.26019    121.20253    1.4866722 
  197000       788000    9921.6356   -37544.008    277.35215  -0.14740555   -27622.373    2928.7705    1.1778082 -0.047356815 -0.0089245641    1.1787937    121.18019    121.21427    1.5242475 
  197200       788800    9728.4134   -37627.513    271.95076  -0.14062476   -27899.099    3207.0783    3.3026648  -0.13051825 -0.020493547    3.3053063    121.10019    121.19503    1.7936401 
  197400       789600    9894.6901   -37688.744    276.59891  -0.00920264   -27794.054    3097.9365    4.0846726  -0.15851589 -0.029308981    4.0878523    121.02019    121.13739     1.999599 
  197600       790400     9949.206   -37817.775    278.12286  0.063714635   -27868.569      3168.79     2.468194 -0.096198614 -0.015890789    2.4701191    120.94019    121.01117    2.2657113 
  197800       791200    9850.9825   -37948.756    275.37709  0.053768513   -28097.773     3398.613    1.6207175 -0.063450573 -0.0099547001    1.6219896    120.86019    120.90693    2.4044217 
  198000       792000    9876.2706   -37790.452      276.084 0.0071433533   -27914.181    3219.6711            0            0            0            0    120.78019    120.78108    2.6057562 
  198200       792800    9758.2519   -37611.257    272.78487 -0.027101073   -27853.005    3161.8468  -0.32820557  0.012353161 0.0017370459  -0.32844256    120.70019    120.69121    2.7403723 
  198400       793600    9918.2294   -37603.624    277.25693 -0.039086789   -27685.394    2992.5881   0.57125235 -0.022060301 -0.0037703821   0.57169058    120.62019    120.63693    2.8162761 
  198600       794400    9946.4753    -37540.29    278.04652  0.059326651   -27593.814    2898.9027   0.88466786 -0.034181504 -0.0059489872   0.88534795    120.54019    120.56589    2.9499848 
  198800       795200    9874.3172   -37770.136     276.0294    0.1048609   -27895.819    3199.2526    1.9488929 -0.075916786  -0.01318718    1.9504155    120.46019    120.51632    3.0978657 
  199000       796000    9768.4225   -37787.618    273.06919   0.03493228   -28019.195    3322.0131    8.7432914  -0.34441494 -0.058472707    8.7502677    120.38019     120.6306    3.5449757 
  199200       796800    9847.8915   -37682.885    275.29069  -0.03010811   -27834.994    3140.1185    10.907779    -0.420078 -0.083120526    10.916182    120.30019    120.61248    4.3092593 
  199400       797600     9826.352   -37598.898    274.68856  -0.01754422   -27772.546    3079.1911    12.398227  -0.48764724 -0.094939862    12.408177    120.22019    120.57511    5.1949018 
  199600       798400    9799.3401   -37559.286    273.93347 -0.059756726   -27759.946    3067.9466    10.570757  -0.42297055 -0.075604326    10.579486    120.14019    120.44286    6.1526937 
  199800       799200    9902.5078   -37659.225    276.81744  0.044867019   -27756.717    3064.0308    6.2978998  -0.25064961 -0.044779731    6.3030447    120.06019    120.24068    6.7366783 
  200000       800000    9808.9437   -37740.005    274.20193   0.10911814   -27931.062    3238.2428    5.5269268   -0.2218704 -0.035564074    5.5314927    119.98019    120.13863     7.209712 
  200200       800800    9908.1861    -37924.57    276.97618 0.0032358577   -28016.383    3324.6745    1.4424482 -0.058278812  -0.01055237    1.4436636    119.90019    119.94184    7.4856239 
  200400       801600     9706.994   -37831.679      271.352 -0.080477245   -28124.685    3435.7076   -1.9345581  0.076605226  0.012673953   -1.9361157    119.82019    119.76527    7.6058528 
  200600       802400    9846.1684   -37764.012    275.24252 -0.070023316   -27917.844    3228.7163   -1.9389489  0.077671005  0.013930654    -1.940554    119.74019    119.68515     7.453327 
  200800       803200    9916.2803   -37590.849    277.20244 -0.049386282   -27674.568    2983.7728   -3.4929542   0.14091368   0.02494656   -3.4958844    119.66019    119.56071    7.2974234 
  201000       804000    9856.3548   -37798.358    275.52727 -0.0021722853   -27942.003    3249.8674   -5.3399832   0.21910423  0.033256417   -5.3445798    119.58019    119.42789     6.906669 
  201200       804800    9675.9289   -37674.297    270.48359   0.12932265   -27998.368     3305.276   -5.1063503   0.20828028   0.03701664   -5.1107303    119.50019    119.35457    6.4639246 
  201400       805600    9802.3546   -37712.902    274.01773 -0.042132806   -27910.548    3219.2342   -5.2626488   0.20422144  0.045338139   -5.2668049    119.42019    119.27011    6.0147827 
  201600       806400    9895.6578   -37684.398    276.62596  -0.06130205    -27788.74    3098.9767   -5.7323032   0.21942898  0.046838266   -5.7366927    119.34019    119.17669    5.5550226 
  201800       807200    9754.1432   -37532.686    272.67002  0.018652095   -27778.543    3085.3665    -7.535559   0.28857412  0.056003763   -7.5412904    119.26019    119.04513    4.9389342 
  202000       808000    9756.2286   -37546.043    272.72831   0.10365901   -27789.815    3094.7118   -5.6742689   0.21632313   0.03826928   -5.6785198    119.18019    119.01835     4.449385 
  202200       808800    9794.3471    -37737.07    273.79389 -0.015181709   -27942.723    3248.5535   -4.4896643   0.17267384  0.031128752   -4.4930914    119.10019    118.97222    4.0831737 
  202400       809600     9816.594   -37614.265    274.41579  0.030555097   -27797.671    3103.9771   -10.559581   0.42022497  0.067562887   -10.568156    119.02019    118.71864    3.5384482 
  202600       810400    9879.4469   -37677.952    276.17279 -0.098963657   -27798.505     3105.452   -8.4653899   0.33106266  0.052868551   -8.4720259    118.94019    118.69853    2.6910893 
  202800       811200    9766.8759   -37598.684    273.02595  0.022990734   -27831.808    3136.1847   -6.2963444   0.24793191  0.041634792   -6.3013615    118.86019    118.68055    2.1947892 
  203000       812000    9835.7333   -37496.394    274.95081  0.067599959   -27660.661    2963.0076    -6.876161    0.2777009  0.040134866   -6.8818833    118.78019    118.58397    1.7065696 
  203200       812800    9870.3446   -37597.834    275.91835 -0.009619477   -27727.489     3031.295   -1.3228326  0.053320733 0.0086575834   -1.3239351    118.70019    118.66276    1.4222158 
  203400       813600    9986.1133   -37738.687    279.15458  -0.08742472   -27752.573    3056.9041   0.15359752 -0.0062935538 -0.0011061021   0.15373039    118.62019    118.62498    1.4493296 
  203600       814400    9763.6499   -37657.437    272.93577 -0.043542874   -27893.787    3197.3386   -4.3353957   0.17892176  0.028800293   -4.3391817    118.54019    118.41662    1.3124406 
  203800       815200    9839.4949   -37657.053    275.05597   0.10448832   -27817.558    3117.8592   -4.8907591   0.20058483  0.033638203   -4.8949863    118.46019    118.32073   0.88746653 
  204000       816000    9871.6978   -37745.544    275.95617  0.013514973   -27873.847    3174.2499            0            0            0            0    118.38019    118.37977   0.84739327 
  204200       816800    9993.2933   -37669.672    279.35529 0.00074660009   -27676.378    2980.3525   -3.3002165   0.13563027  0.019519537     -3.30306    118.30019    118.20622   0.66057872 
  204400       817600    9839.2217   -37739.895    275.04833  -0.14412212   -27900.673    3206.0254    1.1079879 -0.045847517 -0.0069928844    1.1089581    118.22019    118.25228   0.67313713 
  204600       818400     9922.817   -37742.659    277.38517 -0.029925909   -27819.842     3124.067    3.6198899  -0.14789299 -0.024400928    3.6229919    118.14019    118.24411   0.89320345 
  204800       819200    9802.5044   -37746.075    274.02192  0.047519449   -27943.571    3245.9597    3.7022722  -0.15514774  -0.02653063    3.7056166    118.06019    118.16647    1.2184494 
  205000       820000    9744.6506   -37614.069    272.40466   0.16083027   -27869.419    3169.1304    6.4851875  -0.27081434 -0.044987726    6.4909954    117.98019    118.16605     1.502087 
  205200       820800    9924.4342   -37686.598    277.43038  0.033910184   -27762.164    3063.9643    8.9120792  -0.36425142 -0.062762601    8.9197407    117.90019    118.15544    2.0792332 
  205400       821600    9646.6647   -37586.438    269.66554  -0.13290177   -27939.773    3245.3982    10.728449  -0.44732244 -0.057611387    10.737925    117.82019    118.12739    2.8729675 
  205600       822400    9825.3192    -37679.57    274.65969  0.019385078   -27854.251    3159.6476    12.199184   -0.5095803 -0.070403876    12.210026    117.74019    118.08945    3.6430521 
  205800       823200    9796.7347   -37641.619    273.86063  0.045485762   -27844.884    3147.5026    13.127652  -0.54961218 -0.077608535    13.139382    117.66019      118.036    4.7431327 
  206000       824000    9899.9396   -37759.572    276.74565 0.0091021578   -27859.633    3163.0649    9.4432451  -0.40026879 -0.058312968    9.4519042    117.58019    117.85065     5.637601 
  206200       824800    9815.3417   -37637.286    274.38078 -0.048361508   -27821.945    3127.3191    12.863746  -0.53825277 -0.092879252    12.875337    117.50019    117.86846     6.428136 
  206400       825600    9963.4138   -37699.318    278.52003 -0.018673234   -27735.904    3042.8368    10.816542  -0.44612421 -0.066105908     10.82594    117.42019     117.7299    7.2808154 
  206600       826400    9786.5179    -37702.77    273.57503  0.073396586   -27916.252    3224.7853    6.2554131  -0.25380492 -0.040210738     6.260689    117.34019    117.51947    7.9066223 
  206800       827200    9808.4549   -37677.402    274.18826 -0.098150045   -27868.947    3178.2808      4.19568  -0.17035459 -0.026842354    4.1992228    117.26019    117.38057    8.3696695 
  207000       828000    9894.0137   -37665.334       276.58 -0.064072146    -27771.32    3081.9635   -1.3324881  0.055963323  0.009245565   -1.3336948    117.18019    117.14249    8.5257823 
  207200       828800    9863.8483   -37679.662    275.73675  0.028477153   -27815.814    3126.1809   -1.9163564  0.077190754  0.012206585   -1.9179492    117.10019    117.04579     8.376163 
  207400       829600    9709.1452   -37694.511    271.41213  0.032620805   -27985.366    3294.3032    -3.599151   0.14587146  0.023607673   -3.6021832    117.02019    116.91767    8.1863186 
  207600       830400    9844.4752   -37799.875    275.19518 -0.012992196     -27955.4    3262.9843   -4.3919149   0.18257679  0.029555906   -4.3958075    116.94019      116.815    7.8938591 
  207800       831200    9899.4122   -37897.557    276.73091 -0.019400344   -27998.145    3305.8102   -6.2015788   0.25889805  0.039783694    -6.207108    116.86019    116.68325    7.5661534 
  208000       832000    9840.2864   -37713.041    275.07809 -0.028890447   -27872.754    3179.7175    -7.042044   0.29378237  0.037125441   -7.0482672    116.78019    116.57921    7.0632302 
  208200       832800    9880.0545   -37799.831    276.18978 -0.046125028   -27919.777    3225.1225   -8.6276064   0.36232929  0.047621265   -8.6353426    116.70019    116.45387    6.3709287 
  208400       833600    9957.4489   -37810.227    278.35328 -0.089964569   -27852.778    3158.4904   -9.4901014   0.40287126  0.056228893   -9.4988153    116.62019     116.3492    5.5950308 
  208600       834400    9801.4171   -37700.853    273.99153 -0.023839232   -27899.436    3204.4353   -9.0887752   0.39191217  0.034380735   -9.0972859    116.54019    116.28067    4.7614454 
  208800       835200     9784.825   -37814.094    273.52771 -0.014303779   -28029.269      3333.28   -7.4808091   0.32879592  0.030323618   -7.4880926    116.46019    116.24665    4.0254667 
  209000       836000    9855.1008   -37755.517    275.49222   0.10101833   -27900.416    3203.4053   -6.1534266   0.26955774  0.033948702   -6.1594215    116.38019    116.20461    3.4137042 
  209200       836800    9878.0323   -37722.378    276.13325  0.018104715   -27844.345    3147.7399   -6.9474728   0.30103374  0.030798774   -6.9540599    116.30019     116.1019    2.8659204 
  209400       837600    9877.6707   -37800.699    276.12314  0.066645196   -27923.029     3226.412   -7.4728996    0.3218384  0.043284408    -7.479952    116.22019    116.00688    2.3392841 
  209600       838400    9790.1216    -37808.65    273.67577  0.029990369   -28018.528    3320.7424   -5.1595971   0.22105411  0.029337145   -5.1644136    116.14019    115.99304    1.9323663 
  209800       839200    9905.6955   -37716.641    276.90656 -0.032131115   -27810.945    3113.3881   -5.0533241   0.21662987  0.037621375   -5.0581052    116.06019    115.91607    1.5930771 
  210000       840000    9781.2492   -37689.412    273.42775 -0.068183684   -27908.163    3211.9415   -4.1577872   0.17649121  0.025341978   -4.1616086    115.98019    115.86169    1.3645892 
  210200       840800    9938.4596   -37784.919    277.82245 -0.057861384    -27846.46    3149.7482   -3.7065643   0.16312299  0.024358707    -3.710232    115.90019    115.79459    1.0832004 
  210400       841600    9723.8205    -37892.94    271.82237   0.10002308   -28169.119    3469.8909  -0.29398429  0.012575115 0.0017477061  -0.29425831    115.82019    115.81218   0.87258135 
  210600       842400     9853.778   -37851.971    275.45524   0.10308288   -27998.193    3298.3301    2.3125618 -0.099736556 -0.012331584    2.3147443    115.74019    115.80673    1.0434172 
  210800       843200    9833.4684    -38041.46     274.8875  0.025035249   -28207.992    3509.9446    3.0941659  -0.13558293 -0.014720011      3.09717    115.66019    115.74908    1.1827823 
  211000       844000    9846.8581   -37778.379     275.2618  0.018482526   -27931.521    3237.3675     3.474519  -0.15022897 -0.017887274    3.4778112    115.58019    115.67996    1.4507358 
  211200       844800    9818.2938   -37735.262     274.4633 -0.092104899   -27916.968    3222.9261    2.3219267 -0.099950318 -0.010673008    2.3241015    115.50019    115.56699     1.661469 
  211400       845600    9721.9474   -37773.108    271.77001  -0.13020246   -28051.161     3356.266    3.2380474  -0.14129151 -0.015369662     3.241165    115.42019     115.5132    1.8439482 
  211600       846400    9876.2109   -37836.085    276.08233 -0.067901766   -27959.874    3261.3458   0.64447894 -0.027947225 -0.0036052468   0.64509468    115.34019    115.35902    2.0163215 
  211800       847200     9839.151   -37896.014    275.04635  0.095710078   -28056.863    3357.1436   0.26963802 -0.011778753 -0.0017652436   0.26990094    115.26019     115.2683    2.0334501 
  212000       848000    9862.8539   -37801.045    275.70895  0.090501277   -27938.191    3240.3639    3.5489084  -0.15611582 -0.021571803     3.552406    115.18019    115.28209     2.064978 
  212200       848800     9755.241   -37816.805    272.70071 -0.068905693   -28061.564    3366.5996    5.3684583  -0.23397999 -0.035644366     5.373673    115.10019    115.25413    2.4512998 
  212400       849600    9903.4506   -37802.549     276.8438 -0.071822643   -27899.098    3205.9232    5.9545658  -0.25869419 -0.046094486    5.9603609    115.02019    115.19089    2.8618482 
  212600       850400    9784.7528   -37671.781    273.52569 -0.014071009   -27887.028    3191.9722    10.813409  -0.46801472 -0.091660883     10.82392    114.94019    115.24985    3.5450521 
  212800       851200    9761.2788   -37729.573    272.86949   -0.0703189   -27968.294    3274.0932    6.7367713  -0.29613446  -0.05331189    6.7434876    114.86019    115.05326    4.2242871 
  213000       852000    9718.0953   -37872.423    271.66233 -0.0015700423   -28154.327      3460.33    6.2052263  -0.27086069 -0.041995106     6.211277    114.78019    114.95806     4.679585 
  213200       852800    9931.4723   -37836.427    277.62713  0.011515892   -27904.955    3211.3581    7.2432779  -0.31497698 -0.045707336    7.2502672    114.70019    114.90774     5.320407 
  213400       853600    9793.6019   -37814.562    273.77306 -0.025895872    -28020.96    3328.8102    2.0854117 -0.091100353 -0.014223446    2.0874491    114.62019    114.68023    5.7373921 
  213600       854400    9843.4658   -37727.748    275.16697 -0.051066129   -27884.283    3191.4494    3.6918921   -0.1640144 -0.027192805    3.6956336    114.54019    114.64618    6.0033963 
  213800       855200      9896.95   -37706.468    276.66208 -0.049012739   -27809.518    3117.4218    4.1028116  -0.18219723 -0.026654965    4.1069416    114.46019    114.57793    6.4416661 
  214000       856000    9774.6909    -37722.67    273.24442 -0.032117334   -27947.979    3257.6809   0.26035016  -0.01177825 -0.0016092771   0.26062141    114.38019    114.38804    6.5821401 
  214200       856800    9818.3373   -37773.327    274.46452  -0.02251676    -27954.99    3263.6279    1.5320249 -0.069349835 -0.0095743511    1.5336236    114.30019    114.34441    6.6579756 
  214400       857600    9890.7719   -37779.581    276.48938  0.068565877   -27888.809    3195.2458  -0.97937257  0.044801781 0.0068206491   -0.9804205    114.22019    114.19258    6.6581743 
  214600       858400    9780.3145   -37786.734    273.40162  0.016493453    -28006.42    3312.9497   -2.4086303   0.10900468  0.016592532   -2.4111527    114.14019     114.0717    6.4954616 
  214800       859200    9884.4774   -37816.402    276.31342  0.022292472   -27931.924    3239.1639   -1.3292742  0.059433404  0.009985189   -1.3306396    114.06019    114.02257    6.2647536 
  215000       860000    9868.2679   -37743.944    275.86029 -0.083612521   -27875.676    3184.0468   -3.4926027   0.15703072  0.024051377   -3.4962138    113.98019     113.8807    6.0814184 
  215200       860800    9983.9137   -37701.919    279.09309 0.0017467079   -27718.006    3025.2214   -4.8828081   0.21544175  0.032689367    -4.887668    113.90019    113.76094    5.7323111 
  215400       861600    9843.4968   -37724.156    275.16784 -0.049450396    -27880.66    3185.4549   -7.2804075   0.31840338  0.050511211   -7.2875418    113.82019    113.61238    5.2721518 
  215600       862400    9954.4364   -37758.398    278.26907  0.048500241   -27803.961    3107.5288   -10.526525   0.45266548  0.060590381   -10.536427    113.74019    113.43955    4.4460842 
  215800       863200     9878.611   -37787.109    276.14943 -0.010950434   -27908.498    3212.8421   -9.8170331   0.42149733  0.055423523   -9.8262338    113.66019    113.37984    3.7006248 
  216000       864000    9993.4487   -37656.147    279.35963 -0.037989214   -27662.698    2968.3429   -6.3983513   0.27825634  0.031871418   -6.4044782    113.58019    113.39761    3.1244471 
  216200       864800    9714.0417   -37527.594    271.54901 -0.038796154   -27813.552    3119.7516   -7.3051482    0.3240057  0.044418912   -7.3124649    113.50019    113.29166     2.720321 
  216400       865600     9872.134   -37694.509    275.96837 -0.023081816   -27822.375    3126.8875   -6.8102865   0.30955831  0.035812948   -6.8174123    113.42019    113.22581    2.2106992 
  216600       866400     9790.022   -37821.169    273.67298 -0.042619568   -28031.148    3331.8306   -6.8931942   0.31080193   0.04041676   -6.9003157    113.34019    113.14344    1.7885298 
  216800       867200    9879.4516   -37655.797    276.17293   0.15120583   -27776.345    3074.5879   -9.6415046    0.4380091  0.052996262   -9.6515943    113.26019    112.98483    1.0983067 
  217000       868000    9744.8849   -37736.157    272.41121 -0.087119872   -27991.273    3293.0586   -4.3983149    0.2010971  0.025759858   -4.4029851    113.18019    113.05479   0.55003842 
  217200       868800    9896.3576    -37635.25    276.64552  0.032163385   -27738.893    3044.4106   -1.9262647  0.087498027  0.010523726   -1.9282796    113.10019     113.0455   0.28356444 
  217400       869600    9875.2263   -37591.575    276.05481 -0.0035480358   -27716.349    3019.9116  -0.45299969  0.020777543 0.0025531734  -0.45348313    113.02019    113.00763   0.21058051 
  217600       870400    9890.5182   -37884.576    276.48228 -0.0055987051   -27994.058    3295.1163     2.607397  -0.11815982 -0.012214987    2.6101015    112.94019    113.01517   0.29283727 
  217800       871200    9739.8352   -37870.336    272.27005   0.06441309   -28130.501    3429.1566     4.589103  -0.21275493 -0.020620689    4.5940783    112.86019    112.99185   0.66349723 
  218000       872000    9827.4805   -37788.575    274.72011  0.066014939   -27961.094    3260.3106    6.3795066  -0.29751239 -0.024475731    6.3864871    112.78019    112.96306    1.0517758 
  218200       872800    10012.049   -37778.306     279.8796  0.015021631   -27766.256    3068.7238    7.4517192  -0.33781169  -0.02672429    7.4594202    112.70019    112.91372    1.6266504 
  218400       873600    9848.9594   -37727.091    275.32054  -0.13679315   -27878.131     3184.001    6.2494957  -0.28438708 -0.032701328    6.2560484    112.62019    112.79934    2.1576907 
  218600       874400    9829.8013   -37746.739    274.78499 -0.076974154   -27916.937    3222.0673    6.3840912  -0.29531225 -0.033212404    6.3910041    112.54019    112.72319    2.5456494 
  218800       875200     9737.055   -37737.293    272.19233  0.096742259   -28000.238    3302.1331    7.2926292  -0.33698719 -0.040436902     7.300523    112.46019    112.66918    2.9866876 
  219000       876000    9774.0134   -37796.528    273.22548    0.1901063   -28022.514    3323.7511    7.6386893  -0.35120358  -0.05229091    7.6469375    112.38019    112.59908    3.5738751 
  219200       876800    9825.6933   -37759.296    274.67015   0.02621647   -27933.602    3235.3539    4.0513962  -0.18555823 -0.026970162     4.055733    112.30019    112.41647    4.1001265 
  219400       877600    9886.8234   -37848.452      276.379 0.0014390027   -27961.629    3266.1716   -1.5694709  0.072791204 0.0094054151   -1.5711862    112.22019     112.1757    4.1941183 
  219600       878400    9859.4993    -37655.53    275.61517 -0.044848995   -27796.031     3102.294    1.4942774  -0.06990992 -0.010050096    1.4959456    112.14019    112.18333    4.2198564 
  219800       879200    9932.0539   -37856.341    277.64339 -0.072728894   -27924.287     3229.706    1.3340185 -0.062259067 -0.0079863229    1.3354944    112.06019    112.09875    4.4196118 
  220000       880000    9827.6924   -37864.995    274.72603  0.019802055   -28037.303    3341.3371    1.8992966 -0.090981515 -0.0086666783    1.9014942    111.98019    112.03492     4.485092 
  220200       880800    9971.5941   -37778.487     278.7487 0.0061467982   -27806.893    3109.8704    3.2508201  -0.15358358 -0.017577669    3.2544936    111.90019    111.99358    4.6986429 
  220400       881600    9978.8359   -37698.827    278.95114  0.021798106   -27719.991    3025.0755    4.2599208  -0.20414915 -0.020665923    4.2648598    111.82019    111.94244    4.9637818 
  220600       882400     10000.96   -37527.879    279.56962 -0.042554387   -27526.919    2834.4768    1.3768553 -0.065040712 -0.0055825461    1.3784019    111.74019    111.77997    5.2042404 
  220800       883200    9669.6474    -37592.62      270.308 -0.038862398   -27922.973    3230.2849     -2.43343   0.11558399  0.011327201   -2.4361998    111.66019    111.59099    5.1547722 
  221000       884000    9857.1667   -37715.728    275.54997  0.011007559   -27858.561    3164.0299    -2.728674   0.13268921  0.016077289   -2.7319456    111.58019    111.50254    4.8425315 
  221200       884800    9707.8296   -37813.641    271.37536   0.02432861   -28105.811    3407.9251   -3.1467644   0.15308683  0.016588749   -3.1505296    111.50019    111.41058    4.6805504 
  221400       885600    9946.0615   -37944.285    278.03496  0.092618518   -27998.223    3298.1199   -9.0713248   0.43612238  0.043770443    -9.081908    111.42019    111.16111     4.251042 
  221600       886400    10047.293    -37793.86     280.8648 -0.042217938   -27746.568    3048.4251   -7.5455396   0.35651858  0.043375491    -7.554082    111.34019    111.12476    3.4059823 
  221800       887200    9739.1738   -37647.288    272.25156  -0.09077758   -27908.114    3211.0285   -11.760068   0.54442691  0.056108113   -11.772797    111.26019    110.92423    2.5394027 
  222000       888000    9818.3656   -37893.456    274.46531 -0.041529468   -28075.091    3376.2373   -9.4624815   0.43813705  0.049970041   -9.4727513    111.18019    110.90994    1.7542024 
  222200       888800    9756.1011   -37868.679    272.72475  0.070567611   -28112.578    3409.4498   -9.0178659   0.41280121  0.046836974   -9.0274306    111.10019    110.84267     1.067807 
  222400       889600    9923.3811   -37815.004    277.40094 0.0030374624   -27891.623    3187.8548   -7.7081925   0.36394679  0.041378881   -7.7168906    111.02019    110.80011   0.37551952 
  222600       890400    9866.9624   -37827.299     275.8238  0.050779027   -27960.337    3258.5376   -6.6226782   0.31499909  0.047415967   -6.6303348    110.94019    110.75115  -0.25620525 
  222800       891200    9953.5015   -37701.683    278.24294 -0.068607434   -27748.181    3048.5995   -4.3275541   0.20649021  0.026719593     -4.33256    110.86019     110.7368  -0.72950406 
  223000       892000    9846.5936    -37733.51     275.2544 -0.038052844   -27886.916    3186.4346   -3.0660429   0.14495119  0.020452714   -3.0695355    110.78019    110.69289   -1.0107741 
  223200       892800    9772.0891   -37989.048    273.17169 -0.0055272269   -28216.959    3515.1902  -0.83606457  0.040321038 0.0056297675  -0.83705522    110.70019    110.67668   -1.2190671 
  223400       893600     9847.901   -37859.204    275.29095 -0.0068980637   -28011.303    3307.2732   0.43164881 -0.021204306 -0.0029109557   0.43217911    110.62019    110.63294   -1.2664163 
  223600       894400    9912.4712   -37811.373    277.09596  0.047717774   -27898.902    3195.5404   -1.3864387  0.066389108  0.010517893   -1.3880671    110.54019    110.50093   -1.3129524 
  223800       895200    9804.4151   -37947.987    274.07534     0.041677   -28143.572    3441.5653   -3.4242622    0.1652031  0.027752683   -3.4283574    110.46019    110.36264   -1.4307306 
  224000       896000    9765.6143   -37629.143    272.99069 0.0013127503   -27863.529    3163.1367   -4.5222953   0.21726316  0.036160549   -4.5276557    110.38019    110.25123   -1.7530064 
  224200       896800    9885.0321   -37727.107    276.32892 -0.085723724   -27842.075    3140.1086   -7.6822218   0.37531865  0.051384944   -7.6915562    110.30019    110.08083   -2.1939667 
  224400       897600    9901.1546   -37880.828    276.77962  0.013524967   -27979.674    3274.9827   -5.1476767   0.24426938  0.030670624   -5.1535603    110.22019    110.07335   -2.6892012 
  224600       898400    9831.4026   -37904.846    274.82975   0.06606691   -28073.443    3365.7129   -5.2294228   0.24268506  0.027703153   -5.2351243    110.14019    109.99102   -3.0165877 
  224800       899200    10012.957   -37954.656    279.90497 0.0056691673   -27941.699    3235.3058   -3.8189569   0.18127703  0.025098934   -3.8233393    110.06019    109.95135   -3.4086171 
  225000       900000    9952.4042   -37905.881    278.21226 -0.080779213   -27953.476    3249.7877   -3.5566864   0.16893732  0.021000942   -3.5607582    109.98019    109.87886   -3.6999495 
  225200       900800    9891.3151   -37797.455    276.50456 -0.067974202    -27906.14    3201.6364   -2.4317922   0.11711407  0.013633217   -2.4346489    109.90019    109.83103   -3.9734035 
  225400       901600    9806.6265   -37755.304    274.13715  0.029254648   -27948.677      3242.37   -1.3381842  0.064891229 0.0094577694     -1.33979    109.82019    109.78231   -4.0953568 
  225600       902400    9801.0064   -37985.012    273.98005   0.12112267   -28184.006    3475.9634   -2.7360517   0.13400264  0.020603956   -2.7394088    109.74019    109.66232    -4.262421 
  225800       903200     9932.395   -37834.609    277.65292   0.10173904   -27902.214    3192.0479   -6.1308048   0.30255509  0.045870936   -6.1384372    109.66019    109.48521   -4.6728482 
  226000       904000    9836.3729   -37966.261    274.96869  -0.09382098   -28129.888    3419.3605   -7.8012008   0.39546115  0.058925289   -7.8114401    109.58019    109.35741   -5.2656169 
  226200       904800    9835.0624   -37894.391    274.93206 -0.049202456   -28059.329    3348.4295   -9.2709733   0.46714035  0.070842318   -9.2830052    109.50019    109.23536   -5.9921975 
  226400       905600    9870.1598   -37797.021    275.91318  0.024860099   -27926.861       3214.9   -9.7081801   0.49076184  0.074797258   -9.7208643    109.42019    109.14285   -6.7723779 
  226600       906400    9932.5463   -37821.364    277.65715  0.019532132   -27888.817    3175.5168   -12.068035   0.61180121   0.07755534   -12.083782    109.34019    108.99534   -7.6650943 
  226800       907200    9901.2688   -37941.229    276.78281 -0.045406588    -28039.96    3326.0188   -14.042779   0.71363769  0.093117699   -14.061208    109.26019    108.85884   -8.7636843 
  227000       908000    9872.3854   -37736.918    275.97539 -0.028702646   -27864.533    3148.9087   -16.341984   0.84521794   0.11284148   -16.364216    109.18019    108.71304   -9.9153624 
  227200       908800    9720.1293   -37821.087    271.71919  -0.14909865   -28100.958    3383.5214   -14.016963   0.72304858  0.075497468   -14.035802    109.10019    108.69957   -11.204844 
  227400       909600    9943.2921   -37933.865    277.95754 -0.070276064   -27990.573    3270.5729   -14.113261   0.72452803  0.093251921   -14.132154    109.02019    108.61682   -12.201521 
  227600       910400    9844.0525   -37784.679    275.18337  0.044994128   -27940.626    3217.1869   -18.971512   0.95720627   0.13658849   -18.996136    108.94019    108.39784   -13.615737 
  227800       911200    9798.4537   -37702.227    273.90869  0.052760103   -27903.774    3183.4177   -12.677334    0.6453185  0.070259858   -12.693942    108.86019    108.49791   -14.770727 
  228000       912000    9777.5151   -37782.266    273.32336 -0.088720178   -28004.751    3282.9249   -15.746087   0.78825737   0.11396551   -15.766217    108.78019    108.33013    -15.87712 
  228200       912800     9881.089   -37753.266     276.2187  -0.11320251   -27872.177    3149.5256   -14.610924   0.73221887   0.11004482   -14.629674    108.70019     108.2826   -17.032513 
  228400       913600    9810.2345   -37960.639    274.23801 -0.056613538   -28150.405     3422.256   -15.912503   0.78947444    0.1118333   -15.932468    108.62019    108.16538   -18.222739 
  228600       914400    9843.3815   -37822.945    275.16461  0.091053046   -27979.563    3247.2685   -17.231764    0.8445717   0.13840885   -17.253004    108.54019    108.04765    -19.64848 
  228800       915200    9860.3211   -37890.065    275.63815   0.10482658   -28029.744    3295.5654   -19.476351   0.99649223   0.15082557    -19.50241    108.46019    107.90338   -21.208771 
  229000       916000    9906.0761   -37780.738    276.91719   -0.0169791   -27874.662    3143.9348   -15.620065   0.82101956   0.13152452    -15.64218    108.38019    107.93367    -22.69825 
  229200       916800    9730.3675    -37837.95    272.00539   -0.1297068   -28107.583    3378.5665   -14.226332   0.76998849    0.1272978   -14.247722    108.30019    107.89351   -23.873376 
  229400       917600    9812.7523   -37858.843    274.30839  0.052294774    -28046.09    3310.8267   -17.666647   0.97234028   0.14440653   -17.693974    108.22019    107.71505   -25.224904 
  229600       918400    9857.9874     -37835.3    275.57291    0.1897081   -27977.312       3236.8   -18.093193   0.97715945   0.14274286   -18.120123    108.14019    107.62287   -26.712426 
  229800       919200    9971.0422   -37967.134    278.73327 -0.048010427   -27996.092    3254.6096   -18.132056   0.97279953    0.1186685    -18.15852    108.06019    107.54178   -28.193102 
  230000       920000    9811.9951   -37995.758    274.28723 -0.097173448   -28183.763    3442.0595   -22.782673    1.2161829   0.14979337   -22.815602    107.98019    107.32872   -29.841017 
  230200       920800    9892.8702   -37793.859    276.54803   -0.1781256   -27900.988    3159.9302   -21.278204    1.1496945   0.13417005   -21.309663    107.90019    107.29174   -31.607569 
  230400       921600    9725.7163   -37714.032    271.87537 0.0068097569   -27988.316    3246.1295   -14.836123    0.8178749   0.11432914   -14.859089    107.82019    107.39605   -33.001617 
  230600       922400    9822.2193   -37794.689    274.57304  0.021743442    -27972.47    3228.5513   -14.932136   0.80463496  0.094772002     -14.9541    107.74019    107.31333   -34.220556 
  230800       923200    9791.5618   -37798.304    273.71603 -0.042780779   -28006.742     3261.809   -15.731739   0.85941792   0.09978966   -15.755512    107.66019    107.21043   -35.622348 
  231000       924000    9893.5491   -37695.659    276.56701 -0.055731207   -27802.109    3058.7186   -10.936824   0.59752437  0.083057241   -10.953449    107.58019    107.26764   -36.669864 
  231200       924800     9878.109   -37806.863    276.13539  -0.11926435   -27928.754     3185.866   -9.2327611   0.50507417  0.071820131   -9.2468446    107.50019     107.2364   -37.508358 
  231400       925600    9815.1303   -37889.426    274.37487  -0.14043701   -28074.296     3326.133   -12.808397   0.69642142  0.099895773   -12.827705    107.42019    107.05409   -38.437055 
  231600       926400    9820.5035     -37858.8    274.52508  0.043044046   -28038.297    3286.4722   -13.936868   0.76755673   0.13998158    -13.95869    107.34019    106.94177   -39.632625 
  231800       927200    9921.1629   -37965.037    277.33893  0.051768426   -28043.874    3289.3828   -14.977205   0.83811942   0.14308393   -15.001319    107.26019    106.83198   -40.852086 
  232000       928000    9607.0575   -37790.047    268.55835 -0.012537192   -28182.989    3429.5598   -13.573568   0.75539248   0.14600317   -13.595355    107.18019    106.79215   -42.012035 
  232200       928800    9747.2594   -37972.392    272.47759  -0.10128233   -28225.133     3471.314   -16.310605    0.9070495    0.1756337    -16.33675    107.10019    106.63383   -43.340615 
  232400       929600    9911.9091    -37860.98    277.08025 -0.041007842   -27949.071    3194.4978   -13.484968   0.75596003   0.10592405   -13.506556    107.02019    106.63469     -44.5722 
  232600       930400    9768.1252   -37858.465    273.06088 -0.0025154382    -28090.34    3333.2767   -13.539255   0.75746625   0.10284768   -13.560817    106.94019    106.55314   -45.622724 
  232800       931200    9778.3984   -37905.334    273.34806   0.06925844   -28126.936    3369.2494   -12.432399   0.71214631   0.10435738   -12.453216    106.86019    106.50479   -46.592141 
  233000       932000    9868.9636   -37949.284    275.87974 -0.060291807    -28080.32    3321.8675   -14.230181   0.82192472   0.10639172   -14.254295    106.78019    106.37333    -47.62989 
  233200       932800    10033.287    -37992.37    280.47327 -0.033805307   -27959.083    3199.3168   -15.263459   0.84894042   0.13288524   -15.287627    106.70019     106.2638   -48.768286 
  233400       933600    9871.8742   -37869.475     275.9611 -0.048580251   -27997.601    3235.6724   -14.647976   0.83314869   0.13026484   -14.672229    106.62019    106.20139   -49.920186 
  233600       934400    9784.4011   -37815.849    273.51586 -0.045092381   -28031.448    3268.7317   -14.540968   0.84820531   0.13007704   -14.566266    106.54019    106.12441   -50.984091 
  233800       935200     9851.125    -37789.66    275.38108 -0.057179469   -27938.535    3174.7743    -13.71434   0.80014398   0.15016726   -13.738482    106.46019    106.06806   -52.091163 
  234000       936000     9905.567   -37841.883    276.90296  0.025391869   -27936.316    3170.4161   -15.168167   0.89462638   0.17837976   -15.195574    106.38019    105.94643   -53.224434 
  234200       936800    9765.7283   -38002.441    272.99387  -0.04081417   -28236.712    3471.8177   -9.3581367   0.55499874  0.097227792   -9.3750839    106.30019    106.03273   -54.057795 
  234400       937600    9843.7703   -37831.501    275.17548  0.031558297   -27987.731     3221.394   -9.2629146   0.54921826   0.10318144   -9.2797561    106.22019    105.95546   -54.728863 
  234600       938400    9797.8083    -37835.95    273.89064   -0.1248853   -28038.142    3270.6389   -9.9832164   0.59925148   0.10286491   -10.001715    106.14019    105.85483   -55.504891 
  234800       939200    9948.7324   -37918.884    278.10962 -0.087491873   -27970.152    3202.7831   -10.792709   0.65046627    0.1077627   -10.812829    106.06019    105.75165   -56.329027 
  235000       940000    9841.0398   -38021.299    275.09915  -0.19639185   -28180.259     3412.669   -7.4943681    0.4508441  0.078205433    -7.508324    105.98019    105.76607   -57.059459 
  235200       940800    9916.1374   -37992.663    277.19845  0.082073194   -28076.526    3306.8616   -8.0141934   0.49150533  0.083106293   -8.0296812    105.90019    105.67117   -57.688828 
  235400       941600    9820.6398   -38165.972    274.52888 -0.0093879716   -28345.333    3572.1126   -11.521711   0.70194198   0.10525268   -11.543554    105.82019    105.49078   -58.564487 
  235600       942400    9890.7005   -38062.347    276.48738 -0.048774855   -28171.646     3399.572   -9.1057174   0.55176853   0.07549376   -9.1227319    105.74019    105.47994   -59.423959 
  235800       943200    9793.1226   -38000.786    273.75966 -0.078142009   -28207.663    3434.9882    -13.67108   0.83109542   0.13602941   -13.696994    105.66019    105.26925   -60.371556 
  236000       944000    9858.7547   -37915.366    275.59436 -0.011290367   -28056.612    3281.3501   -14.090088   0.85601835   0.11968493   -14.116574    105.58019    105.17726   -61.530425 
  236200       944800    9772.3054   -37906.825    273.17773  0.043917046   -28134.519    3357.7348     -13.4539   0.82666084   0.11273973   -13.479744    105.50019    105.11546   -62.631877 
  236400       945600    9791.8505   -37919.848     273.7241  0.030087977   -28127.998    3348.6505   -15.627356   0.95234965   0.13173869   -15.656902    105.42019    104.97325   -63.743091 
  236600       946400    9881.6948   -37882.665    276.23563  0.001401903   -28000.971    3222.6653   -12.709822   0.76668255   0.10003791   -12.733318    105.34019    104.97678   -64.921939 
  236800       947200    9839.4407   -38030.373    275.05445 -0.033126054   -28190.932    3412.8947   -10.893836   0.65526224  0.076755111   -10.913795    105.26019    104.94877   -65.775265 
  237000       948000    9850.8682   -37848.051     275.3739  -0.10105147   -27997.183    3218.4234   -11.129362   0.66831407   0.08110086   -11.149705    105.18019    104.86203   -66.587858 
  237200       948800    9956.0016   -38041.182    278.31283 -0.048375749    -28085.18    3304.6817   -10.214585   0.62559677  0.070200385   -10.233965    105.10019    104.80819   -67.394896 
  237400       949600    9938.2621   -37961.439    277.81693  0.089043603   -28023.177    3239.6558   -14.486321   0.89685348  0.098267484    -14.51439    105.02019    104.60589   -68.330968 
  237600       950400    9849.6619   -38006.163    275.34017  0.045755021   -28156.501    3372.0556   -13.928347   0.84914419  0.094874371   -13.954529    104.94019    104.54189   -69.462888 
  237800       951200    9687.6407   -37970.512    270.81099 -0.025231431   -28282.871    3496.0996     -18.4484       1.1207   0.10078274   -18.482683    104.86019    104.33251    -70.75674 
  238000       952000    9961.3751   -37932.985    278.46304 -0.051306799    -27971.61    3185.0415   -15.112911   0.93640143  0.085528669   -15.142135    104.78019    104.34796   -72.005338 
  238200       952800    9887.0467   -38050.368    276.38524  -0.01128089   -28163.321    3375.7677   -15.260233   0.95317135  0.099637647   -15.290297    104.70019    104.26373   -73.284683 
  238400       953600    9915.9782   -37996.999      277.194 -0.034305529    -28081.02    3294.2142   -8.7112439   0.53366393  0.055369988   -8.7277507    104.62019    104.37123   -74.274048 
  238600       954400    9905.5856     -37917.6    276.90348 -0.028278671   -28012.015    3223.7044   -10.819681   0.64415166  0.065086932   -10.839034    104.54019     104.2309   -74.993412 
  238800       955200    9757.2567   -38073.999    272.75706 -0.035473834   -28316.742    3528.3864   -6.5011335   0.39563831  0.031709294   -6.5132382    104.46019     104.2745   -75.662892 
  239000       956000    9843.1456   -37935.209    275.15802  0.031326898   -28092.063    3303.5395   -6.4466563    0.3856049  0.027536321   -6.4582371    104.38019    104.19607   -76.271882 
  239200       956800    9862.5843   -37854.425    275.70141 -0.032761336   -27991.841    3202.3565    -9.280276   0.54419815  0.051173044   -9.2963591    104.30019    104.03498   -76.962886 
  239400       957600    9946.0563   -37950.826    278.03481  0.043023556    -28004.77    3214.5977   -10.214139   0.60727263  0.041485605    -10.23226    104.22019    103.92824   -77.831157 
  239600       958400    9815.6146   -38037.582    274.38841 -0.095725204   -28221.968    3431.4565   -10.683737   0.63179859    0.0414601   -10.702482    104.14019    103.83481   -78.716516 
  239800       959200    9731.1146   -37852.689    272.02627  0.035922459   -28121.574    3329.4848   -9.0444075   0.53457774  0.025335078   -9.0602275    104.06019    103.80173   -79.505126 
  240000       960000    9820.2436   -37913.599    274.51781 -0.0050198611   -28093.356     3299.647   -6.8255068   0.40700416  0.016731337   -6.8376513    103.98019    103.78523    -80.04546 
  240200       960800    9878.8976   -38001.341    276.15744  0.016850275   -28122.444    3328.0606   -10.896734    0.6540033  0.015024151   -10.916352    103.90019     103.5887   -80.738586 
  240400       961600    9839.2172   -38076.467     275.0482  -0.09592705    -28237.25    3442.5086   -7.4790094   0.44603719  0.010560379   -7.4923055    103.82019    103.60653   -81.420786 
  240600       962400    9785.0394    -37872.36     273.5337 -0.095370636   -28087.321    3291.2087   -1.9786409   0.11938568 0.0019839721   -1.9822403    103.74019    103.68396   -81.736047 
  240800       963200    9781.7707   -38006.088    273.44233   0.12228411   -28224.317    3428.1574  -0.36792586  0.022212161 0.00013626641  -0.36859577    103.66019    103.65006   -81.752751 
  241000       964000    9806.4015   -37958.574    274.13086  -0.13348957   -28152.172    3358.6569  -0.80896815  0.047822204 0.00059936788  -0.81038064    103.58019    103.55744   -81.751378 
  241200       964800    9901.6652   -37875.931    276.79389 -0.045934715   -27974.266    3182.9614   -3.3925534   0.20432415 0.00081488244   -3.3987009    103.50019    103.40349   -81.799394 
  241400       965600    9973.9028   -37784.382    278.81324 -0.041808146   -27810.479    3015.9348   -6.9738665   0.41333836 0.0087101835   -6.9861104    103.42019    103.22099   -82.246275 
  241600       966400    9830.7411   -37992.266    274.81126  0.050123259   -28161.525     3363.962   -6.4657758   0.38264218 0.0040995719   -6.4770895    103.34019    103.15553   -82.778119 
  241800       967200    9803.3724   -37969.226    274.04619 -0.004663826   -28165.854    3365.6295   -8.4426704   0.50135131 0.0010661571   -8.4575433    103.26019    103.01895   -83.310489 
  242000       968000    9802.9434   -38099.279    274.03419  -0.11056077   -28296.336    3496.1742   -10.994072   0.64243233 0.0085179162    -11.01283    103.18019    102.86594   -84.113383 
  242200       968800    9870.3965   -37874.954     275.9198 -0.064436503   -28004.557    3205.4724   -9.2601219   0.54333372 -0.0057490424     -9.27605    103.10019    102.83556   -84.966393 
  242400       969600    9819.8952   -38003.381    274.50807 -0.00098996407   -28183.485    3381.4602   -11.787468    0.6975805 -0.0086760062   -11.808095    103.02019    102.68322   -85.890251 
  242600       970400    9895.1726    -38124.44     276.6124   0.12053376   -28229.268    3424.3472   -10.085542   0.59530995 -0.020369313   -10.103117    102.94019    102.65193   -86.823653 
  242800       971200    9794.2088   -38104.605    273.79003  0.064984754   -28310.396     3504.781   -8.5502368   0.51051211 -0.024788676   -8.5654998    102.86019    102.61586   -87.603538 
  243000       972000    9809.6795   -38079.848     274.2225  0.019478426   -28270.168    3467.1447   -6.8527877   0.40928609  -0.02186878   -6.8650341    102.78019    102.58445   -88.325006 
  243200       972800    9895.1638   -37928.528    276.61215 -0.002097194   -28033.364    3232.3902   -7.1142134   0.41591662 -0.026312922   -7.1264094    102.70019    102.49698   -88.939817 
  243400       973600    9850.2456   -37925.304    275.35649 -0.024112319   -28075.058    3272.4505   -6.2387685   0.36834901 -0.030690602   -6.2497084    102.62019    102.44203   -89.393918 
  243600       974400     9740.166   -38002.377     272.2793  0.026953427   -28262.211    3456.6817   -7.3045378   0.41799089 -0.028579357   -7.3165433    102.54019    102.33155   -89.820565 
  243800       975200    9931.5198   -38072.642    277.62845  0.087040915   -28141.122    3334.0996   -5.2449955   0.30653997 -0.020553093   -5.2539858    102.46019    102.31048   -90.330098 
  244000       976000    9909.4571   -37951.274    277.01171 -0.00097932715   -28041.817    3235.1464    -7.866362   0.46072403 -0.039657497   -7.8799423    102.38019    102.15545   -90.925225 
  244200       976800    9923.6095   -38143.053    277.40733 -0.034946716   -28219.443    3414.7314  -0.65329483  0.038847362 -0.001995308  -0.65445186    102.30019    102.28189   -91.288275 
  244400       977600    9782.9504   -38143.261    273.47531 -0.014802874   -28360.311    3554.3756   -4.9659134    0.2939529 -0.015489667     -4.97463    102.22019    102.07846   -91.490303 
  244600       978400    9969.4173   -38008.564    278.68785  0.074913642   -28039.147    3230.2563    -5.760436   0.34166742 -0.016822024   -5.7705842    102.14019    101.97572    -92.00715 
  244800       979200    9753.4126   -38130.121     272.6496  0.017348587   -28376.709     3569.206   -1.2778673   0.07559297 -0.0025646576   -1.2801038    102.06019    102.02402   -92.167625 
  245000       980000     9924.954   -38158.571    277.44491 -0.006386006   -28233.617    3426.7808   -4.0525635   0.24094618 -0.0099219949   -4.0597321    101.98019     101.8646   -92.382559 
  245200       980800    9734.1484   -38101.722    272.11108 -0.040956992   -28367.574    3560.2554    1.1823529 -0.072618642 0.0020398814    1.1845827    101.90019    101.93444    -92.49492 
  245400       981600    9916.7748   -38232.959    277.21627  0.058081158   -28316.184    3506.6031    3.8000678  -0.23701801 0.0059934962     3.807457    101.82019    101.92938   -92.247462 
  245600       982400    9705.6002   -38406.784    271.31304  0.083985534   -28701.184    3891.5084    2.6460462  -0.16254426 0.0032632155     2.651036    101.74019    101.81634   -91.940713 
  245800       983200    9747.1869   -38104.554    272.47556  0.035368971   -28357.367     3547.845    5.8841512  -0.36541841 -0.00095628554     5.895487    101.66019    101.82903    -91.68028 
  246000       984000    9808.6313   -38082.479    274.19319 -0.0095884043   -28273.847     3466.759    6.7074987  -0.41996023 0.0059832028    6.7206355    101.58019    101.77261    -91.20258 
  246200       984800    9697.6983   -38106.121    271.09214 -0.098019858   -28408.423    3602.6057     4.098492  -0.26064446 0.0037991483    4.1067732    101.50019    101.61793    -90.80512 
  246400       985600    9864.4605   -38196.323    275.75386 -0.093785974   -28331.862    3523.9733  -0.71611686  0.046514354 -0.00097658526  -0.71762657    101.42019    101.40009   -90.722737 
  246600       986400    9801.1102    -38194.57    273.98295 -0.048341999    -28393.46    3582.2236   -2.6823375   0.17060834 -0.0073207768   -2.6877677    101.34019     101.2638   -90.849119 
  246800       987200    9833.8862   -38351.613    274.89918  0.044404036   -28517.727    3705.5893   -2.3932846   0.15054687 -0.0091446572   -2.3980323    101.26019    101.19208   -90.980859 
  247000       988000    9915.2069    -38168.67    277.17244  0.067250416   -28253.463     3445.037   -3.4879688   0.21821346  -0.01018445   -3.4948029    101.18019    101.08074   -91.204341 
  247200       988800    9705.2737   -38134.223    271.30391 -0.039112028   -28428.949    3622.7876   -4.1064298   0.24894955 -0.012100767   -4.1139869    101.10019    100.98305   -91.457254 
  247400       989600    9795.4687   -38190.853    273.82524  -0.10069753   -28395.384    3587.3297   -1.7196353   0.10598895 -0.0034022059   -1.7229018    101.02019    100.97137   -91.722107 
  247600       990400     9864.411   -38308.415    275.75248  0.032512378   -28444.004    3631.0143   -3.4664283   0.21750922 -0.0018867868   -3.4732462    100.94019    100.84136   -91.854269 
  247800       991200    9684.3959   -38143.024    270.72029   0.14329361   -28458.628    3643.7221   -6.4252934   0.40017084 0.00097505858   -6.4377428    100.86019    100.67666   -92.143835 
  248000       992000    9865.9275   -38264.843    275.79487  0.016307668   -28398.915    3587.0579   -3.7612958   0.23318385 0.0034533722   -3.7685187    100.78019    100.67292   -92.564782 
  248200       992800    9854.9257   -37986.644    275.48732 -0.073996404   -28131.718     3322.054   -4.9274596   0.30306003 0.0071378487   -4.9367757    100.70019    100.55954   -92.840559 
  248400       993600    9798.4827   -38200.604     273.9095  0.019130687   -28402.121    3589.8438   -9.4794152   0.59080243  0.018257683   -9.4978258    100.62019    100.34923   -93.526683 
  248600       994400    9998.0945   -38347.997     279.4895   0.11321082   -28349.902    3534.4173   -3.7651814   0.23331986 0.0053316118   -3.7724074    100.54019    100.43281   -94.044234 
  248800       995200    9768.5993   -38254.786    273.07413   0.23804586   -28486.187    3669.3863   -4.5247342   0.27916303 0.0028250086   -4.5333386    100.46019    100.33107   -94.386933 
  249000       996000    9817.5447   -38221.717    274.44236 -0.015847002   -28404.173    3589.3686   0.99934054  -0.06082548 0.00038275489      1.00119    100.38019     100.4092   -94.563744 
  249200       996800    10006.336   -38227.008    279.71989 -0.036636426   -28220.672    3409.5358    4.9758806  -0.30152371 0.0026669444    4.9850087    100.30019    100.44302   -94.430123 
  249400       997600     9868.591   -38105.891    275.86933 -0.073103895     -28237.3    3425.0768     6.943341  -0.43338123 0.00092142805    6.9568531    100.22019    100.41936   -93.949469 
  249600       998400    9826.3994   -38157.011    274.68989 0.0089135747   -28330.611    3516.1252    4.1209088  -0.25976265 0.0062977241    4.1290926    100.14019    100.25857   -93.411057 
  249800       999200     9798.384    -38370.84    273.90674   0.13677625   -28572.456    3757.6593    3.7229111  -0.23240807  0.010924304    3.7301742    100.06019    100.16717   -93.130148 
  250000      1000000    9841.6907   -38180.937    275.11735 -0.053200334   -28339.246    3526.6043    6.1967007  -0.38980851  0.014437885     6.208966    99.980192    100.15799   -92.667189 
  250200      1000800    9756.7118   -38084.607    272.74182  -0.16520263   -28327.895      3520.37    5.9531971  -0.37945552  0.013842766    5.9652941    99.900192    100.07103   -92.133342 
  250400      1001600    9726.0985   -38015.791    271.88605 -0.062461494   -28289.693    3483.0796    7.4982768  -0.48259028  0.012618002    7.5138012    99.820192    100.03527   -91.680124 
  250600      1002400    9855.7864   -38098.698    275.51138  0.054953839   -28242.912    3433.7416     8.983796  -0.58333064   0.01379568    9.0027249    99.740192    99.997812   -90.973679 
  250800      1003200     9862.148   -38234.951    275.68922   0.13330333   -28372.803    3559.6329    11.099446  -0.70334854  0.031401898    11.121753    99.660192    99.978356   -90.131322 
  251000      1004000    9924.1484   -38232.353    277.42239  0.069703636   -28308.204     3497.913    9.3977047   -0.5988976  0.021150721    9.4167924    99.580192    99.849643    -89.45849 
  251200      1004800    9857.7127   -38243.413    275.56523  -0.12165258     -28385.7    3577.3819    16.564943      -1.0463  0.053739722    16.598041    99.500192    99.974821   -88.449203 
  251400      1005600    9848.1599   -38156.764    275.29819  -0.01055021   -28308.604     3502.386    14.616365  -0.90330327  0.042455399    14.644312    99.420192    99.839001   -87.212175 
  251600      1006400    9823.4621   -38339.077    274.60778  -0.12950853   -28515.615    3708.1809    10.090105  -0.60824292  0.035275402    10.108482    99.340192    99.629405   -86.205307 
  251800      1007200    9856.6209   -38256.918    275.53471   0.12692375   -28400.297    3590.8877    3.9744525  -0.24085758  0.016409655    3.9817777    99.260192    99.374357   -85.675558 
  252000      1008000    9671.0577   -38500.528    270.34742  0.063835174   -28829.471     4018.668    6.9965779  -0.42873452  0.023272792    7.0097402    99.180192     99.38087   -85.305203 
  252200      1008800    9864.5526   -38335.925    275.75643   0.08755238   -28471.373    3664.9113    7.2485229  -0.44424068  0.032048824     7.262194    99.100192    99.308083   -84.802956 
  252400      1009600    9946.2512   -38269.787    278.04026 -0.075588203   -28323.536    3521.5051    6.3249931   -0.3924649  0.027648331    6.3372179    99.020192    99.201655   -84.131762 
  252600      1010400    9865.3683   -38296.434    275.77924 -0.046471704   -28431.066    3630.3673    2.6214482  -0.16177139  0.013748363    2.6264709    98.940192    99.015634   -83.810845 
  252800      1011200    9907.8901   -38213.621     276.9679 -0.025213445   -28305.731    3501.8983    5.1984199   -0.3158174  0.026368591    5.2080712    98.860192    99.009394   -83.507762 
  253000      1012000    9839.2135   -38218.484     275.0481  0.046663444    -28379.27    3573.0259    2.8273928  -0.17448512  0.016757732    2.8328212    98.780192    98.861529   -83.333053 
  253200      1012800    9780.2978   -38283.128    273.40115   0.12593389    -28502.83    3696.7454    5.0508238  -0.31240242   0.03237268    5.0605794    98.700192     98.84518   -83.081817 
  253400      1013600    10051.452   -38319.329    280.98108 -0.038472287   -28267.877    3462.6639    7.6150654  -0.47258969  0.048499196    7.6298698    98.620192    98.838588   -82.440014 
  253600      1014400    9911.1622   -38360.381    277.05937   0.06304127   -28449.219    3643.9076    13.000552  -0.79269555  0.095405591    13.025046    98.540192    98.912736   -81.624311 
  253800      1015200    9694.9369   -38204.709    271.01495  -0.04377054   -28509.772    3705.4032    10.157804  -0.62540449  0.092047828    10.177455    98.460192    98.751376   -80.735614 
  254000      1016000    9810.2513   -38201.584    274.23848 -0.030706311   -28391.332    3588.3081    10.677823  -0.65915792  0.087435926    10.698507    98.380192    98.686263   -79.887757 
  254200      1016800     9807.396   -38273.877    274.15866 -0.0017770371   -28466.481    3663.0217    11.988549  -0.73504801  0.095381052    12.011441    98.300192    98.643776   -79.101273 
  254400      1017600    9819.2391   -38412.964    274.48973  0.024726413   -28593.725    3789.0609    13.995574  -0.85811693   0.13550507    14.022511    98.220192    98.621235   -78.122378 
  254600      1018400    9880.7052   -38339.618    276.20797   0.11353193   -28458.913    3653.1502    15.358418  -0.94262613   0.12343411    15.387813    98.140192    98.580243   -76.932151 
  254800      1019200    9838.7644    -38393.97    275.03555  -0.01224504   -28555.206    3755.1532    8.9734612  -0.54772591  0.071183224    8.9904437    98.060192    98.317461   -75.996337 
  255000      1020000    9824.1795   -38126.456    274.62783 -0.076218617   -28302.277    3503.5214     11.84145  -0.73391714  0.089517928    11.864509    97.980192    98.319578   -75.227161 
  255200      1020800    9943.6561   -38158.853    277.96772    0.1073216   -28215.197    3418.9361    8.4646181  -0.51682288  0.052484459    8.4805436    97.900192    98.142893   -74.319811 
  255400      1021600    9847.5514   -38328.384    275.28118 -0.036019086   -28480.833    3683.0444    13.926109  -0.85231591  0.073306362    13.952359    97.820192     98.21923   -73.477968 
  255600      1022400    9841.0462   -38274.561    275.09933 -0.018271821   -28433.515    3634.2394    15.682079  -0.96698255  0.072761355    15.712032    97.740192    98.189507   -72.229446 
  255800      1023200    9831.4259   -38122.907     274.8304   0.10169526   -28291.481    3490.8921    18.476938   -1.1523613  0.078425474    18.513004    97.660192    98.189535   -70.919072 
  256000      1024000    9876.9529     -38456.9    276.10308 -0.047656596   -28579.947    3778.1735    25.269338   -1.5577123  0.078831208    25.317427    97.580192    98.303947   -69.098186 
  256200      1024800    9785.6554   -38234.749    273.55092 0.0016138663   -28449.094    3655.0057    21.714827   -1.3309395  0.060286176     21.75566    97.500192    98.122182   -67.176345 
  256400      1025600    9924.2874   -38218.814    277.42628 -0.063769712   -28294.527    3500.4511    21.875953    -1.355452  0.022674084    21.917917    97.420192    98.046818   -65.562561 
  256600      1026400    9792.6178   -38351.165    273.74555  0.010868673   -28558.547    3763.1774    23.412212   -1.4535869  0.045924471    23.457338    97.340192    98.010801   -63.807933 
  256800      1027200     9777.643   -38341.443    273.32694    0.0249868     -28563.8    3771.5099    20.240296   -1.2679453  0.067160229    20.280083    97.260192    97.840023   -62.057813 
  257000      1028000    9818.3677   -38284.831    274.46537  0.063128555   -28466.464    3675.2282    20.409773   -1.2980052  0.024488778     20.45102    97.180192    97.764907   -60.490153 
  257200      1028800    9801.4287   -38413.595    273.99185   0.15479054   -28612.166    3822.9545    16.549466   -1.0292887  0.027085493    16.581465    97.100192    97.574348   -58.982068 
  257400      1029600     9916.837   -38248.997    277.21801  0.032537834    -28332.16     3542.535    18.115617   -1.1295573  0.036424041    18.150835    97.020192    97.539187   -57.625335 
  257600      1030400    9976.2658   -38421.663     278.8793  0.042331984   -28445.397    3659.6234     13.49638  -0.84371669  0.015228965    13.522735    96.940192    97.326955   -56.316062 
  257800      1031200    9782.2513   -38249.784    273.45576 0.0099958009   -28467.533    3684.2711    14.735173  -0.91277394  0.028875931    14.763446    96.860192    97.282404   -55.266499 
  258000      1032000    9892.2397   -38331.272    276.53041  0.049846846   -28439.032     3658.913    12.802761  -0.79595113   0.02566153    12.827506    96.780192    97.147092   -54.107212 
  258200      1032800    9861.0294   -38425.803    275.65795  0.046597612   -28564.774    3782.6883    14.877587  -0.94648467  0.025908081    14.907686    96.700192    97.126526   -53.145729 
  258400      1033600    9820.5461   -38276.181    274.52626   0.15913767   -28455.635    3673.3485    16.595882    -1.034624  0.026211997    16.628122    96.620192    97.095681   -51.779646 
  258600      1034400    9901.5958   -38346.849    276.79195  0.056065545   -28445.253    3666.0353    12.892539  -0.80541381 0.0067594102    12.917674    96.540192    96.909668   -50.781736 
  258800      1035200    9900.7307   -38298.304    276.76777 0.00024380611   -28397.574    3619.9054    13.596966  -0.85124887 -0.0095034156     13.62359    96.460192    96.849837   -49.835008 
  259000      1036000     9890.283   -38389.251    276.47571  0.018364496   -28498.968    3721.5856    13.890817  -0.86871493  0.007029253    13.917957    96.380192    96.778248   -48.855557 
  259200      1036800    9947.8944   -38365.193    278.08619  0.059139746   -28417.299    3639.5907    12.255852   -0.7715929 -0.0095540669     12.28012    96.300192    96.651452   -47.764502 
  259400      1037600    9909.4528   -38465.316    277.01159  0.068260701   -28555.863    3778.5617    15.848665   -0.9963966 -0.010545587    15.879959    96.220192    96.674305   -46.583679 
  259600      1038400    9741.6863   -38300.046     272.3218 -0.0042494099    -28558.36    3784.2874    15.778734  -0.98587363 -0.015935677    15.809511    96.140192    96.592292   -45.255097 
  259800      1039200    9826.9042   -38247.664      274.704  0.039154147    -28420.76    3650.7701    12.377423   -0.7436124 -0.019125824    12.399756    96.060192     96.41487   -44.029245 
  260000      1040000    9773.4821   -38308.837    273.21062  0.041630956   -28535.355    3765.1152    15.686811  -0.93558408 -0.024118015    15.714705    95.980192    96.429583   -42.903828 
  260200      1040800    9772.4443   -38321.926    273.18161 -0.014877737   -28549.481    3779.2559    16.230558  -0.98852806 -0.025881343    16.260654    95.900192    96.365182   -41.591439 
  260400      1041600    9828.7471   -38322.593    274.75552 0.0094520656   -28493.846    3720.1746    20.555346   -1.2383802 -0.015732944    20.592622    95.820192    96.408952   -40.052821 
  260600      1042400    9755.3652   -38410.774    272.70418  0.025246059   -28655.409    3882.4353    22.416329   -1.3589621  -0.02594876    22.457499    95.740192    96.382234   -38.354982 
  260800      1043200    9756.2592     -38361.7    272.72917 -0.057321697   -28605.441    3835.8457    22.335321   -1.3614634 0.0067496873    22.376778    95.660192    96.299928   -36.557533 
  261000      1044000    9923.4655   -38253.227     277.4033  0.059425597   -28329.761    3562.0909    23.814909   -1.4361298  0.013160808    23.858175    95.580192    96.262254   -34.785984 
  261200      1044800     9911.797   -38314.651    277.07712 -0.051176607   -28402.854    3637.4339    23.692011   -1.4113768  0.021303954    23.734023    95.500192    96.178707   -32.933682 
  261400      1045600    9975.5109   -38237.324    278.85819  0.080351217   -28261.814    3496.2889    22.413286   -1.3726794  0.037244895    22.455312    95.420192    96.062172   -31.111658 
  261600      1046400    9870.7757   -38361.895     275.9304  0.083045594   -28491.119    3725.9308      21.1516   -1.2782139  0.021998038    21.190198    95.340192    95.946026   -29.353431 
  261800      1047200    9730.1077   -38437.812    271.99812   0.01443237   -28707.704    3945.5357    20.927935   -1.2577241  0.013228866    20.965698    95.260192    95.859612   -27.666639 
  262000      1048000    9735.6527   -38601.316    272.15313 -0.0017704232   -28865.663    4105.7949    19.581365   -1.1818842 0.0082127602    19.617002    95.180192    95.741077   -25.928136 
  262200      1048800    9823.5748   -38416.244    274.61093  0.061342295   -28592.669    3834.1786     21.26102   -1.2569622  0.031419869    21.298167    95.100192    95.709111   -24.261024 
  262400      1049600     9842.176    -38347.94    275.13091  -0.03695884   -28505.764    3748.1882    20.777269   -1.2338639  0.011011428    20.813876    95.020192    95.615274   -22.539129 
  262600      1050400    9795.5868    -38436.76    273.82855   0.08229566   -28641.174    3885.9354    20.407839    -1.210057   0.05054439    20.443744    94.940192    95.524699   -20.983955 
  262800      1051200     9917.913   -38360.183    277.24809  0.062204254    -28442.27    3689.5204    20.747962   -1.2167793  0.057134593     20.78369    94.860192    95.454411   -19.287608 
  263000      1052000    10001.147   -38327.316    279.57484  0.017403403   -28326.169    3574.1124    19.978914   -1.2045063  0.044699068    20.015241    94.780192    95.352456   -17.497708 
  263200      1052800    9842.0977   -38468.509    275.12873  0.064647432   -28626.411    3876.9479    14.294543  -0.86433238  0.024118856     14.32067    94.700192    95.109754   -16.035928 
  263400      1053600    9816.2921    -38458.65    274.40735   0.11422696   -28642.358    3891.0379    20.992559   -1.2373266  0.036643661    21.029024    94.620192    95.221421   -14.666235 
  263600      1054400    9868.6244   -38500.308    275.87026  0.052393309   -28631.683    3886.7968     15.01491  -0.89325005  0.019616444     15.04147    94.540192    94.970348   -13.200131 
  263800      1055200     9592.745   -38465.395    268.15825  -0.01234407    -28872.65    4128.0589    19.773962   -1.1742566    0.0082948    19.808799    94.460192    95.026557   -11.914019 
  264000      1056000    9784.1939   -38313.724    273.51007 -0.035152645    -28529.53     3784.042    23.215982   -1.3842852  0.029193239    23.257233    94.380192    95.045084    -10.09069 
  264200      1056800    9786.8838   -38333.659    273.58526  0.082166936   -28546.776    3801.2319    20.566932   -1.2168433  0.022415342     20.60291    94.300192    94.889246   -8.3920121 
  264400      1057600    9977.6455   -38436.449    278.91787   0.25087614   -28458.804    3709.5836    27.949417   -1.6510944 0.0066389066    27.998144    94.220192    95.020539   -6.3940677 
  264600      1058400    9963.4135   -38503.371    278.52002   0.10932471   -28539.957    3796.8203    23.536276   -1.4027401 -0.0062251663    23.578041    94.140192     94.81425   -4.3502274 
  264800      1059200    9812.1252   -38409.396    274.29086  0.019089193   -28597.271    3858.1219    21.710625   -1.2874127  0.026582559    21.748779    94.060192    94.681985   -2.7352657 
  265000      1060000    9817.7867   -38568.668    274.44913 -0.060629226   -28750.881    4012.5752    22.581093   -1.3114719  0.044408344    22.619189    93.980192    94.626854  -0.91935798 
  265200      1060800    9893.6402   -38389.659    276.56956 0.0082377495   -28496.019    3763.0542    16.336223   -0.9790874 0.0076361405    16.365539    93.900192    94.368178   0.57413754 
  265400      1061600    9887.3576   -38531.053    276.39393  0.018152017   -28643.695    3911.5833    16.510657  -0.96626532  0.014836214    16.538915    93.820192    94.293132    1.9717152 
  265600      1062400    9829.7708   -38500.415    274.78413  0.021703117   -28670.645    3937.4311    19.754081   -1.1776668  0.027271636    19.789173    93.740192    94.305997    3.2662694 
  265800      1063200    9902.3698   -38399.352    276.81359  0.028590768   -28496.982    3764.8172    20.685822   -1.2399597  0.045645858    20.723003    93.660192    94.252677    4.9542637 
  266000      1064000    9817.9013    -38409.87    274.45233   0.14117748   -28591.969     3860.837    22.954002   -1.3792167  0.062825889    22.995487    93.580192    94.237606    6.6853365 
  266200      1064800    9685.5119    -38529.14    270.75148  0.051112923   -28843.629    4108.3033    28.733966   -1.7570204  0.042568228    28.787666    93.500192    94.323096    8.6243614 
  266400      1065600    9957.2168   -38422.196    278.34679   0.13759056   -28464.979    3736.7131    25.115989   -1.5116678  0.084286543    25.161581    93.420192    94.139494     10.93773 
  266600      1066400    9841.1867   -38434.861    275.10326   0.12066502   -28593.674    3865.1412    27.360377    -1.662738   0.11302381    27.411087    93.340192    94.123766     12.89265 
  266800      1067200    9778.6278   -38373.977    273.35447   0.14021461   -28595.349    3869.6112    26.857446   -1.6312764  0.098709522    26.907122    93.260192    94.029367    15.128418 
  267000      1068000    9833.7689   -38532.499     274.8959 -0.011601699    -28698.73    3974.1897    29.044124   -1.7657879   0.11286513    29.097971    93.180192    94.011962    17.427859 
  267200      1068800    9737.1637   -38575.706    272.19537  -0.17228986   -28838.542    4119.4696    24.721971   -1.5269424  0.091988896    24.769252    93.100192    93.808285     19.64338 
  267400      1069600    9781.0039   -38253.094    273.42089   0.11053994   -28472.091    3753.0066    26.916582   -1.6718473   0.05002264      26.9685    93.020192     93.79112    21.611502 
  267600      1070400    9875.9069   -38307.681    276.07384  0.011294318   -28431.774    3712.5813     30.11089   -1.8667891  0.071786932    30.168787    92.940192    93.802557     23.97794 
  267800      1071200     9936.561   -38474.065    277.76938  0.032972638   -28537.504    3823.7387    25.327109   -1.5805956  0.071675956    25.376483    92.860192    93.585634    26.168292 
  268000      1072000    9820.7223   -38418.073    274.53119   0.10248856   -28597.351    3881.8136    28.429623    -1.780325  0.078631821    28.485421    92.780192    93.594461    28.314454 
  268200      1072800    9739.6491   -38528.086    272.26485   0.17476706   -28788.437    4076.8778    27.827307   -1.7242708   0.12474773    27.880955    92.700192     93.49719    30.625517 
  268400      1073600    9822.8135   -38398.069    274.58965 -0.0054857189   -28575.255    3859.7807    34.903314   -2.2064362    0.1499705    34.973307    92.620192    93.619829    33.098854 
  268600      1074400    9876.7952   -38319.315    276.09867   0.17224752    -28442.52      3732.96    31.892635    -2.013953   0.13781884    31.956458    92.540192    93.453633    35.793593 
  268800      1075200    9887.4034   -38466.323    276.39521   0.10250193    -28578.92    3870.4976    33.244498   -2.0837023    0.1681294     33.31016    92.460192     93.41231    38.302684 
  269000      1076000    9827.4775   -38386.334    274.72003   0.14067292   -28558.857    3850.6885    36.255799    -2.253242   0.15203482    36.326067    92.380192    93.418479    41.101143 
  269200      1076800    9810.9413   -38375.392    274.25777  0.045253645   -28564.451    3862.7578    31.978778   -2.0123782   0.12478418    32.042276    92.300192    93.216085    43.875624 
  269400      1077600     9898.884   -38373.466    276.71614  0.099800278   -28474.582    3774.4268    33.076509   -2.0828884    0.1505836    33.142367    92.220192    93.167516    46.455461 
  269600      1078400    9878.2568   -38501.162    276.13953   0.11337963   -28622.905    3924.7631    33.227615   -2.1223574   0.10831314    33.295503    92.140192    93.091892     49.19768 
  269800      1079200    9933.3335   -38488.149    277.67916  0.093047308   -28554.815    3860.0097    31.721293   -2.0539287   0.12449571    31.787963    92.060192    92.968819    51.784941 
  270000      1080000    9832.9047   -38506.093    274.87174   0.11508111   -28673.189    3981.3181    29.852121   -1.9669555   0.13589621    29.917161    91.980192    92.835368    54.205243 
  270200      1080800      9710.92   -38405.656    271.46175   0.13556561   -28694.736    4005.5109    30.253099   -1.9724284   0.14176648    30.317661    91.900192    92.766811    56.724413 
  270400      1081600    9728.7617   -38363.447     271.9605    0.1246366   -28634.685    3948.5889    28.586445   -1.8832082   0.16093571    28.648861    91.820192    92.639131    59.096368 
  270600      1082400    9835.6923   -38450.931    274.94967  0.054989571   -28615.239     3928.977    33.875591   -2.2262376   0.14468389    33.948973    91.740192    92.710562    61.625102 
  270800      1083200    9813.9134   -38457.187    274.34085  0.035324834   -28643.274     3961.783    31.314795   -2.0635465   0.14410334    31.383043    91.660192     92.55725     64.18301 
  271000      1084000    9857.8919   -38380.371    275.57024   0.12129123   -28522.479    3839.5917    34.257998   -2.2240139   0.17514183     34.33056    91.580192    92.561465    66.738918 
  271200      1084800    9846.6561   -38370.988    275.25615  0.023058285   -28524.332    3846.4766    31.980136   -2.0254254    0.1411871    32.044522    91.500192    92.416149    69.405861 
  271400      1085600    9727.5523    -38383.66    271.92669  0.002900094   -28656.107    3981.6031    29.675438    -1.916156   0.16193117    29.737678    91.420192     92.27024    71.838331 
  271600      1086400    9684.6738   -38425.575    270.72805  0.074438574   -28740.901    4069.6672     27.10145   -1.7200213   0.13015566    27.156289    91.340192    92.116486    74.131071 
  271800      1087200    9745.6441   -38489.474    272.43243    0.1243761    -28743.83    4069.4848    32.684861   -2.0661221   0.14656089    32.750427    91.260192    92.196318    76.552874 
  272000      1088000    9830.3114   -38517.178    274.79925   0.08759345   -28686.867    4017.3744     31.11747   -1.9846709   0.15795562    31.181097    91.180192     92.07148    79.236187 
  272200      1088800    9809.3914   -38468.395    274.21444 -0.0061579487   -28659.003    3990.6898     34.18367   -2.1286161   0.20134573    34.250472    91.100192    92.079177    81.747663 
  272400      1089600    9884.8084   -38481.743    276.32267 -0.034667793   -28596.934     3923.668    41.122078   -2.5867286   0.23727539    41.204038    91.020192     92.19785    84.800157 
  272600      1090400    9741.7201   -38420.461    272.32274  0.040549095   -28678.741    4012.3798     37.72276   -2.3782184     0.233049    37.798371    90.940192    92.020545    87.957468 
  272800      1091200    9652.3519   -38418.417    269.82452  0.022404102   -28766.066    4100.7743    38.342995   -2.3857319   0.25251327    38.417974    90.860192    91.958248    90.876264 
  273000      1092000     9817.135   -38576.118    274.43091  0.064726058   -28758.983     4094.049     40.98133   -2.5150676   0.27179455    41.059333    90.780192    91.953715    94.187848 
  273200      1092800    9810.1551   -38425.813    274.23579 -0.010637085   -28615.658    3957.4255    38.688748   -2.3912159   0.26610537    38.763487    90.700192     91.80812    97.436055 
  273400      1093600    9708.5315   -38384.317    271.39498 -0.025339937   -28675.785    4022.0661    37.938123   -2.3349096   0.24137967    38.010673    90.620192    91.706611    100.52717 
  273600      1094400    9813.0042   -38712.643    274.31544 -0.036324193   -28899.639    4246.7281    37.396627   -2.3205645   0.20508278    37.469118    90.540192    91.611138    103.42484 
  273800      1095200     9933.715   -38429.616    277.68982   0.16058143   -28495.901    3849.6275    32.299389   -2.0116449   0.22684115    32.362768    90.460192    91.385242    106.28992 
  274000      1096000    9749.9144   -38395.218    272.55181   0.18429404   -28645.303    4002.0294    31.328048   -1.9538502   0.20679938    31.389598    90.380192    91.277437    108.87576 
  274200      1096800    9803.1291   -38568.132    274.03939   0.16518732   -28765.003    4122.3118    35.370089   -2.2274079   0.22748234    35.440884    90.300192    91.313188    111.53936 
  274400      1097600     9796.614   -38583.215    273.85726  0.082735501   -28786.601    4146.6638    37.168759   -2.3667313   0.20864621    37.244619    90.220192    91.284724    114.40389 
  274600      1098400    9900.5859   -38608.813    276.76372   0.04653366   -28708.227    4072.4903    35.714359   -2.3115423   0.16344646    35.789459    90.140192    91.163148    117.32197 
  274800      1099200    9863.9137   -38392.255    275.73857   0.16557805   -28528.342     3893.167    37.879819   -2.4585553    0.1851729    37.959972    90.060192    91.145162    120.26347 
  275000      1100000    9808.4024   -38464.415     274.1868   0.16089954   -28656.012    4020.5323    40.588028   -2.6988629    0.1501513    40.677936    89.980192    91.142818    123.42326 
  275200      1100800    9801.4747   -38455.924    273.99314   0.19414259   -28654.449    4022.0376    40.006537   -2.7067977   0.16086924    40.098325    89.900192    91.046258    126.59401 
  275400      1101600    9859.1314   -38416.548    275.60489   0.13538302   -28557.417    3925.2068    44.340102   -2.9456508   0.16370063     44.43814    89.820192    91.090253    129.94685 
  275600      1102400    9789.2057   -38371.341    273.65017   0.06118861   -28582.136     3956.814    41.302809   -2.7915032   0.11297213    41.397189    89.740192    90.923368    133.40704 
  275800      1103200    9771.5973   -38377.519    273.15794  0.022788889   -28605.922    3985.3711     39.50466   -2.6906283   0.10318385    39.596317    89.660192    90.791915    136.60336 
  276000      1104000    9898.3078   -38565.378    276.70004 -0.0026090051    -28667.07     4044.855    43.059562   -2.8915126  0.072920037    43.156599    89.580192    90.813637    139.99634 
  276200      1104800    9830.0991   -38491.105    274.79331   0.10245905   -28661.006    4044.8161    39.726897   -2.6370609  0.095605503    39.814439    89.500192    90.638147    143.28832 
  276400      1105600    9735.9047   -38552.785    272.16018   0.12870726    -28816.88    4207.3089     35.82517    -2.421586   0.11697151     35.90711    89.420192    90.446509    146.38008 
  276600      1106400    9786.0918   -38477.366    273.56312    0.1957979   -28691.274    4087.3562    32.829276   -2.2191341   0.12589375    32.904434    89.340192    90.280718    149.22819 
  276800      1107200    9898.9362    -38491.78     276.7176  0.096900862   -28592.844     3989.853    36.380676   -2.4552711   0.16440441    36.463804    89.260192    90.302415     151.9449 
  277000      1108000    9890.4527   -38539.755    276.48045 -0.042553658   -28649.302    4048.4577    37.629891    -2.525845   0.14346185     37.71484    89.180192    90.258158    154.88971 
  277200      1108800    9970.1541   -38614.783    278.70845  -0.10108886   -28644.629    4042.0054    40.650936   -2.6839219    0.1975942     40.73992    89.100192    90.264589    157.89511 
  277400      1109600    9870.8607   -38622.379    275.93277   0.17137214   -28751.518    4147.8818    41.199823   -2.7389551   0.19722521    41.291236    89.020192    90.200341    161.05595 
  277600      1110400    9744.9025   -38469.289     272.4117     0.153195   -28724.387    4124.1234    40.377033   -2.6980511   0.16314996    40.467405    88.940192    90.096803    164.36063 
  277800      1111200    9996.5983   -38583.449    279.44768   0.13617075    -28586.85    3992.1355     41.50112   -2.7682519   0.11208224    41.593494    88.860192    90.048977    167.65706 
  278000      1112000    9882.9672   -38496.081     276.2712 -0.045172691   -28613.114    4019.4753    44.276024    -2.905809   0.14908234    44.371525    88.780192     90.04835    171.11028 
  278200      1112800    9737.7929   -38452.723    272.21296  0.061533582    -28714.93    4125.9767    43.558648    -2.877007    0.1512871    43.653819    88.700192    89.947844    174.63013 
  278400      1113600    9795.4982   -38579.508    273.82607  0.056087607    -28784.01     4193.126    44.873471   -2.9823578  0.087913388    44.972554    88.620192    89.905522    178.14543 
  278600      1114400    9698.7048   -38512.663    271.12028  0.084635187   -28813.958    4223.9005    46.058609   -3.0788285   0.07983407    46.161466    88.540192    89.859491    181.60856 
  278800      1115200    9909.9739   -38539.112    277.02616  0.089866428   -28629.138    4039.0644    48.868507   -3.2340989  0.047046125    48.975429    88.460192     89.85989    185.42954 
  279000      1116000    9784.9248   -38548.217     273.5305  0.030193555   -28763.292    4180.7486    49.074865   -3.2176572  0.075333749    49.180295    88.380192    89.785743    189.35565 
  279200      1116800    9731.4105   -38242.231    272.03454  0.093607554    -28510.82    3931.3364    51.075695   -3.3500951   0.02939473    51.185454    88.300192    89.763033    193.38477 
  279400      1117600    9796.0367   -38361.347    273.84112  0.018578849    -28565.31    3987.5218    51.789636   -3.4101624 0.0022500042    51.901788    88.220192      89.7035    197.55728 
  279600      1118400    9821.9392   -38476.809    274.56521   0.10398963    -28654.87    4077.0973    54.142846   -3.4771281  0.081016284    54.254444    88.140192    89.690719    201.89189 
  279800      1119200    9860.5665   -38389.052    275.64501   0.19891618   -28528.485    3959.0045    51.148681   -3.2326079   0.12853682    51.250891    88.060192    89.524903    206.14031 
  280000      1120000    9817.5861   -38588.571    274.44352   0.15110335   -28770.985    4205.0875    51.237065   -3.2346552   0.14127121    51.339262    87.980192    89.447428    210.16274 
  280200      1120800    9786.4682   -38654.957    273.57364   0.11809474   -28868.489    4305.7666    50.307041   -3.1819587   0.15822509     50.40782    87.900192    89.340815    214.24458 
  280400      1121600    9867.0597   -38538.992    275.82652   0.22987183   -28671.933    4112.2073    50.768798   -3.2600542   0.21864559    50.873831    87.820192     89.27413    218.24934 
  280600      1122400    9771.6909   -38398.432    273.16055   0.25790808   -28626.741    4074.4261    49.005887   -3.1099727   0.25747317    49.105144    87.740192    89.143596    222.27997 
  280800      1123200    9862.4846   -38675.011    275.69863  0.042177985   -28812.526    4261.5399    50.917904   -3.3136887   0.28544301    51.026414    87.660192    89.118489    226.27702 
  281000      1124000    9879.2037   -38470.698      276.166   0.07433083   -28591.494    4048.5051    48.827896   -3.1777745   0.30191014    48.932124    87.580192    88.978652    230.16685 
  281200      1124800     9845.202   -38483.569     275.2155  0.018478382   -28638.367    4094.9636    52.005836   -3.3775768    0.2118852    52.115832    87.500192    88.989615    234.20706 
  281400      1125600    9834.9969   -38368.377    274.93023   0.13515357   -28533.381    3995.1414    51.389651   -3.3392156   0.21499342    51.498474    87.420192    88.891977    238.49302 
  281600      1126400    9808.6499   -38490.205    274.19371  0.038513583   -28681.555    4145.3265    52.994276   -3.5095015   0.24445479    53.110918    87.340192    88.858046    242.69055 
  281800      1127200    9810.8708   -38486.361     274.2558 -0.0083778203   -28675.491    4139.7944    54.556809   -3.5934983   0.17324201    54.675302    87.260192    88.822743    246.94643 
  282000      1128000    9764.0303   -38458.007    272.94641  0.087551829   -28693.977    4160.6548    55.112926   -3.6836174   0.24105103    55.236417    87.180192    88.758775    251.41052 
  282200      1128800    9909.1483    -38513.99    277.00308  0.061541929   -28604.841    4072.8241    57.208063   -3.8140488   0.16145327    57.335291    87.100192    88.738743    255.86418 
  282400      1129600    9832.5912   -38459.994    274.86298  0.076399371   -28627.403    4102.7631    56.635547   -3.8094076   0.10740337    56.763618    87.020192    88.642409    260.45056 
  282600      1130400    9905.8884   -38482.744    276.91195   0.11438851   -28576.855    4060.1059    54.225045   -3.6447125   0.18948271    54.347726    86.940192    88.493384    264.85393 
  282800      1131200     9848.004     -38551.7    275.29383   0.20597268   -28703.696    4184.4486    57.367354   -3.8910734   0.16396312    57.499397    86.860192    88.503432    269.34528 
  283000      1132000    9866.7161   -38541.098    275.81691   0.15034791   -28674.382    4153.9353    60.121624   -4.0671912   0.19311454    60.259348    86.780192    88.502287    274.03177 
  283200      1132800    9903.6612   -38713.508    276.84969   0.26089981   -28809.847    4291.3268    62.718457   -4.2981797   0.27973485    62.866186    86.700192    88.496768    279.00148 
  283400      1133600     9749.774   -38574.611    272.54788  0.085334529   -28824.837    4313.0358    62.352031   -4.1886494   0.25009632    62.493064    86.620192    88.406108    284.02529 
  283600      1134400    9860.4704   -38470.554    275.64232  0.083506005   -28610.084    4099.4379    65.324611   -4.4049348   0.15994022    65.473154    86.540192    88.411253     288.9413 
  283800      1135200    9726.2964   -38527.473    271.89158  0.027607776   -28801.176    4297.6886    63.755786   -4.3988149    0.2339519    63.907782    86.460192    88.286528    294.16699 
  284000      1136000    9834.1499   -38634.013    274.90655   0.10120904   -28799.863    4303.2776    60.714177   -4.1399194   0.24530078    60.855652    86.380192    88.119325    299.15793 
  284200      1136800    9946.5881   -38677.755    278.04968   0.21398167   -28731.167    4230.8056    64.607903   -4.5284879   0.26954483    64.766974    86.300192    88.151077    304.14875 
  284400      1137600     9828.662   -38598.364    274.75314   0.18113737   -28769.702       4275.8    64.685736   -4.5460781   0.17248825    64.845517    86.220192    88.073321    309.25456 
  284600      1138400     10031.75   -38485.808    280.43031  0.044117155   -28454.059    3964.3232     68.13839      -4.7865   0.12946347    68.306423    86.140192    88.092204    314.60055 
  284800      1139200    9864.9796   -38503.742    275.76837 -0.0091912115   -28638.763     4162.011    64.797081   -4.5410895  0.035986254     64.95602    86.060192    87.916478    319.80222 
  285000      1140000    9782.5446   -38513.606    273.46396  0.093700955   -28731.061    4249.0277    69.008442   -4.7967314  0.024600967    69.174955    85.980192    87.957019    325.08952 
  285200      1140800    9765.4082   -38554.975    272.98493   0.16815738   -28789.567    4318.8014     63.35336   -4.3241108  0.056703254    63.500783    85.900192      87.7149    330.40227 
  285400      1141600    9803.4896   -38673.914    274.04946   0.16375652   -28870.425    4403.4805     63.58216   -4.3131584  0.013203918    63.728287    85.820192      87.6414    335.43709 
  285600      1142400    9874.4045   -38713.753    276.03184   0.13041956   -28839.349    4377.4106    65.615379   -4.4571989  0.078122574    65.766638    85.740192    87.619638     340.6674 
  285800      1143200    9775.4541   -38621.318    273.26575  0.037220249   -28845.863    4396.3357    62.129901   -4.2458865   0.11526857    62.274919    85.660192    87.439875    345.69437 
  286000      1144000    9887.3887    -38586.34     276.3948    0.0602991   -28698.951    4248.1973    64.655356   -4.4087981   0.12175897    64.805612    85.580192    87.432181    350.81895 
  286200      1144800    9873.0202   -38486.802    275.99314   0.23731137   -28613.782     4163.919    65.784468   -4.4254897   0.15464916    65.933338    85.500192    87.384401    356.03691 
  286400      1145600    9781.2493   -38570.503    273.42775   0.30064104   -28789.254    4352.5935     61.50678   -4.1300707   0.15852519    61.645491    85.420192    87.181891    361.13893 
  286600      1146400    9902.9151   -38436.074    276.82883   0.13081174   -28533.159    4107.2921    59.781371   -4.0358816   0.15367763    59.917646    85.340192    87.052524    366.00153 
  286800      1147200    9808.0151   -38381.673    274.17597  0.038010854   -28573.658     4152.742    60.664563   -4.0960403   0.18116507    60.802957    85.260192    86.997819    370.77841 
  287000      1148000    9854.9812   -38419.284    275.48887  0.086030616   -28564.303     4151.009     59.27248   -3.9882148   0.12121043    59.406628    85.180192    86.877924    375.58952 
  287200      1148800    9861.4339   -38499.419    275.66925  0.081747243   -28637.986      4230.15    56.823462   -3.7986741  0.085419936    56.950356    85.100192    86.727745    380.20019 
  287400      1149600    9797.6441   -38569.946    273.88606   0.21529962   -28772.302    4367.0104     56.07605   -3.8674854  0.056479265    56.209287    85.020192    86.626571    384.70117 
  287600      1150400    9860.3437   -38667.325    275.63878   0.25652367   -28806.982    4397.8091    60.109192   -4.0859164 0.0070956719    60.247902    84.940192     86.66196    389.37315 
  287800      1151200    9930.9663   -38536.785    277.61298    0.2173344   -28605.819    4200.9997    61.664622   -4.1552276  0.098257413     61.80454    84.860192    86.626436    394.22262 
  288000      1152000    9737.8257    -38427.38    272.21387  0.088554092   -28689.555    4290.3036    62.834021   -4.2950937  0.095395352     62.98072    84.780192    86.580041    399.18412 
  288200      1152800     9838.782   -38570.425    275.03604   0.12927456   -28731.643    4332.8855    66.628654   -4.5091677  0.055829855    66.781085    84.700192    86.608623    404.35706 
  288400      1153600    9871.9448   -38593.036    275.96308   0.09128777   -28721.091    4321.8585    69.655956   -4.8206414  0.090588826    69.822626    84.620192    86.615524    409.85946 
  288600      1154400    9900.9003   -38563.664    276.77251   0.15145755   -28662.764    4265.9964    69.889499   -4.6997956  0.046194924    70.047357    84.540192    86.541945    415.44616 
  288800      1155200    9908.3995   -38524.046    276.98214   0.23355833   -28615.646    4222.8572    69.587532   -4.6496929   0.12938439     69.74282    84.460192    86.453244    421.09807 
  289000      1156000    9779.0668   -38565.782    273.36674   0.27398914   -28786.715    4406.0177    66.037989   -4.4920497   0.17207464    66.190816    84.380192    86.271758    426.67483 
  289200      1156800    9699.4815   -38616.103    271.14199    0.1673977   -28916.622    4539.8854     67.44097   -4.4849491   0.19491494    67.590216    84.300192    86.231741    431.94486 
  289400      1157600    9928.3753   -38620.593    277.54055  0.026239028   -28692.218    4323.4235    67.254379   -4.4888785   0.28102165    67.404603    84.220192    86.146437    437.41561 
  289600      1158400    9835.6537   -38629.344    274.94859  0.047340783    -28793.69    4434.0007    64.417913   -4.3247144   0.29481922    64.563594    84.140192    85.985266    442.70339 
  289800      1159200    9921.8503   -38581.702    277.35815   0.11929382   -28659.852    4294.8121    69.530238   -4.6988989   0.42716574    69.690144    84.060192    86.051739    447.96714 
  290000      1160000    9845.6221   -38542.863    275.22724  0.086424429   -28697.241    4347.0901    65.593882   -4.4597954   0.42937139    65.746723    83.980192    85.859069    453.45383 
  290200      1160800    9839.3042   -38562.998    275.05063   0.11516244   -28723.693    4367.6119    70.376962   -4.8071901   0.55385842    70.543126    83.900192     85.91611    458.95462 
  290400      1161600    9866.5703   -38622.037    275.81284   0.15562783   -28755.467     4402.223    71.401259   -4.9350251   0.57739395    71.573932    83.820192    85.865561    464.67896 
  290600      1162400    9785.4118   -38508.541    273.54411   0.23540743   -28723.129    4372.1037    73.021285   -5.1165829   0.51819932    73.202159    83.740192    85.832082     470.5188 
  290800      1163200    9938.0245    -38574.66    277.81029 0.0087586198   -28636.635    4293.2401    71.997615    -4.897887   0.43179358    72.165312    83.660192    85.722458    476.35951 
  291000      1164000    9887.2053   -38666.041    276.38967   0.16369981   -28778.836    4439.2078    72.993511   -4.9731715   0.35469769     73.16359    83.580192     85.67098    482.17579 
  291200      1164800    9929.0855    -38736.14     277.5604    0.1635815   -28807.055     4478.069    69.729897   -4.7231972   0.24546288    69.890109    83.500192    85.497452    487.80962 
  291400      1165600    9734.7035   -38638.536     272.1266   0.16183199   -28903.832     4581.863    69.874746   -4.7266329   0.20951029    70.034742    83.420192    85.421584    493.30012 
  291600      1166400    9845.4848   -38509.489    275.22341  0.084508377   -28664.004    4356.4875    66.837305   -4.4161774   0.21314347    66.983381    83.340192    85.254403    498.85446 
  291800      1167200    9694.7939   -38598.306    271.01095  0.014468238   -28903.512    4593.0704    71.012202   -4.5481372   0.10376266    71.157776    83.260192    85.293671    504.29191 
  292000      1168000    9856.8552   -38693.841    275.54126   0.13242727   -28836.986    4521.0061    75.326394   -4.7860286   0.24643084    75.478689    83.180192    85.337126    510.16128 
  292200      1168800    9784.7824   -38489.354    273.52652   0.16675906   -28704.572    4400.5735     72.16704   -4.5613434   0.20637346    72.311341    83.100192     85.16663    516.06965 
  292400      1169600    9732.3871   -38541.282    272.06184   0.13628557   -28808.895    4507.9203    73.818741   -4.6296743   0.15800409    73.963947    83.020192    85.133847    521.90481 
  292600      1170400    9842.5323   -38496.539    275.14087   0.13673017   -28654.006    4354.3943    76.032094   -4.6406044   0.10742359    76.173657    82.940192    85.116982    527.89647 
  292800      1171200    9735.7406   -38478.452    272.15559   0.11669002   -28742.712    4456.6033    73.066596    -4.535679  0.061514245    73.207264    82.860192    84.952228    533.88026 
  293000      1172000    9871.0744   -38385.539    275.93875  0.029879139   -28514.465    4238.4175    71.056536   -4.3200284  0.010896222    71.187739    82.780192    84.814527     539.7009 
  293200      1172800    9855.5525   -38447.056    275.50484   0.15540988   -28591.503    4313.3472    74.293175    -4.506245 -0.009803315    74.429713    82.700192    84.827155    545.56422 
  293400      1173600    9823.9902   -38489.747    274.62254   0.27691864   -28665.756    4389.7079    74.848703   -4.4635602 -0.039732582    74.981686    82.620192    84.762926    551.45651 
  293600      1174400    9841.0099   -38410.465    275.09832   0.23518624   -28569.455    4290.9962    78.115877   -4.5906479  0.023911813    78.250654    82.540192    84.776325    557.59027 
  293800      1175200    9871.4484   -38608.933     275.9492   0.23841163   -28737.484    4475.2686    74.469569    -4.340579 0.0035779429    74.595961    82.460192    84.591905    563.62047 
  294000      1176000    9735.5751   -38563.582    272.15096   0.16519338   -28828.007     4569.081    75.709952   -4.4246222   0.18060049    75.839348    82.380192     84.54743    569.62844 
  294200      1176800    9747.8659    -38482.34    272.49454   0.14613104   -28734.475    4472.6355    80.110451   -4.6498292   0.20801749    80.245552    82.300192    84.593322    575.79521 
  294400      1177600    9800.0123   -38532.646    273.95226   0.11461083   -28732.633    4470.9074    82.559601   -4.8120129   0.18390523    82.699922    82.220192    84.583447    582.34363 
  294600      1178400    9754.5852   -38527.563    272.68238   0.11073073   -28772.978    4527.3888    77.896914   -4.6790363   0.28295562    78.037828    82.140192    84.370244    588.67449 
  294800      1179200    9770.3954   -38520.759    273.12434   0.18576786   -28750.364     4497.355    83.006118   -5.1272742    0.3494716    83.165057    82.060192    84.436736    595.23216 
  295000      1180000    9704.7352   -38558.408    271.28886   0.19212787   -28853.673    4608.4984    82.277855   -5.1656872   0.21156476    82.440127    81.980192    84.336024    601.83261 
  295200      1180800    9803.2472   -38423.264    274.04269   0.24988331   -28620.017    4389.0013    79.989115   -4.9151724   0.11878831    80.140074    81.900192    84.190308    608.33202 
  295400      1181600    9926.3934   -38497.195    277.48515   0.17575019   -28570.802     4341.803    82.296662   -5.0031001   0.20351898    82.448851    81.820192    84.176273    614.80079 
  295600      1182400    9867.8786   -38450.743    275.84941    0.1721566   -28582.864    4362.1669    82.039997   -5.0392106     0.204281    82.194869    81.740192    84.089016    621.27935 
  295800      1183200    9890.6344   -38630.669    276.48553   0.29048745   -28740.035    4523.3667     82.34895   -5.0657195   0.20097175    82.504857    81.660192    84.017873    627.73937 
  296000      1184000    9823.9527   -38773.804    274.62149   0.10859399   -28949.852    4732.6922    84.132314   -5.2632866   0.17986862     84.29698    81.580192    83.989077    634.39391 
  296200      1184800    9659.3366   -38551.882    270.01977   0.26647938   -28892.545    4675.5742    86.063931   -5.3628849   0.33324597    86.231501    81.500192    83.964349    641.12271 
  296400      1185600    9844.7415   -38611.468    275.20263   0.18070281   -28766.726    4555.3586    86.991521   -5.3028854    0.2512815    87.153362    81.420192    83.910688     648.1094 
  296600      1186400    9727.7502   -38563.973    271.93222  0.078938984   -28836.223     4644.522    82.625932   -5.3141338   0.19574922    82.796877    81.340192    83.706217    654.87897 
  296800      1187200    9641.2035   -38652.619    269.51287   0.10166707   -29011.416    4823.4701    84.340507   -5.5370869   0.25016379    84.522441    81.260192    83.675519     661.6606 
  297000      1188000     9782.816   -38688.545    273.47155    0.2368489   -28905.729    4703.0487    92.619801   -6.0170665   0.29019783    92.815499    81.180192    83.832463    668.87884 
  297200      1188800    9834.2821   -38557.038    274.91024    0.2542278   -28722.755    4528.0883    92.213362   -6.1431845   0.32807485    92.418345    81.100192    83.741116    676.29013 
  297400      1189600    9985.2896   -38639.326    279.13155   0.21298999   -28654.036    4459.9225    94.709891   -6.3568452   0.39351625      94.9238    81.020192      83.7327    683.80444 
  297600      1190400    9773.6099   -38569.732     273.2142   0.17693289   -28796.122    4620.1807    91.115054   -6.0036104   0.22193215    91.312899    80.940192    83.549532    691.24259 
  297800      1191200    9767.1954   -38536.314    273.03489   0.12738629   -28769.118    4589.6584    95.402565    -6.308925   0.23120341     95.61122    80.860192    83.592341    698.83672 
  298000      1192000     9840.777   -38490.496    275.09181  0.076086032   -28649.719    4475.4674    96.327302   -6.3406953   0.31348785    96.536272    80.780192    83.538771    706.56061 
  298200      1192800    9801.4994   -38628.563    273.99383   0.23833433   -28827.064    4663.6495    94.591636    -6.120274   0.32590244    94.789987    80.700192    83.408877     714.0738 
  298400      1193600    9868.5951    -38605.48    275.86944   0.13689934   -28736.885    4579.9728    94.429585   -6.1762825   0.28503316    94.631782    80.620192    83.324357    721.57926 
  298600      1194400    9812.2661   -38656.054     274.2948  0.050856703   -28843.788    4697.8915    93.563417   -6.2481642   0.35724658    93.772492    80.540192    83.219806    729.09618 
  298800      1195200    9746.2855     -38682.6    272.45036  0.085204626   -28936.315    4797.9839     94.61273   -6.2543342   0.27098947    94.819611    80.460192    83.169723    736.67761 
  299000      1196000    9788.0458    -38552.48    273.61774  0.018875104   -28764.434    4637.8362    92.795978   -6.1280499   0.32085114    92.998653    80.380192    83.037696    744.23396 
  299200      1196800    9827.4541   -38571.389    274.71937   0.12119828   -28743.935    4630.1528    90.128134   -6.0883941   0.31743627    90.334101    80.300192    82.881566    751.60392 
  299400      1197600    9793.0484   -38666.551    273.75759   0.15643585   -28873.503    4764.3859    89.678128   -6.0795401   0.32818731    89.884566    80.220192    82.788722    758.84322 
  299600      1198400    9876.0915   -38760.203      276.079   0.20349526   -28884.111    4776.0343     91.68436    -6.092951   0.45036387    91.887697    80.140192    82.765954    766.04584 
  299800      1199200    9698.1528   -38623.242    271.10485    0.2954879   -28925.089    4834.3233    89.019149    -5.865687    0.3227717    89.212776    80.060192    82.609528    773.30133 
  300000      1200000    9719.7466   -38443.981    271.70849   0.13127273   -28724.234    4642.0547    89.124808    -5.805603   0.33857847    89.314338    79.980192     82.53243     780.3811 
  300200      1200800    9905.0089   -38377.818    276.88736   0.23067673   -28472.809    4389.8343     92.39121   -5.9705649   0.34962118    92.584586    79.900192    82.545866    787.71048 
  300400      1201600    9933.8375   -38433.324    277.69324   0.15244748   -28499.486    4425.5146    91.215818   -5.7640358   0.21226853    91.398002    79.820192    82.431963    795.03202 
  300600      1202400    9893.9094   -38668.683    276.57708   0.16834061   -28774.774    4689.0308    97.757346   -6.2234509   0.18211752    97.955414    79.740192    82.539318    802.49301 
  300800      1203200    9922.6382   -38618.263    277.38018   0.16974105   -28695.624    4618.0064    97.386522    -6.103217    0.3416299    97.578177    79.660192     82.44854    810.27024 
  301000      1204000    9854.6017    -38636.74    275.47826   0.10548716   -28782.138    4712.9401    97.385278   -6.0116224   0.37883872    97.571386    79.580192    82.368346    818.13759 
  301200      1204800    9809.1924   -38649.697    274.20888  0.096827765   -28840.505    4780.6428    96.683246   -6.0340191   0.25027434    96.871678    79.500192    82.268354    825.87469 
  301400      1205600    9845.2795    -38574.99    275.21767    0.1634892   -28729.711    4664.2935    101.10841   -6.2106848   0.47085039    101.30007    79.420192    82.314879    833.87734 
  301600      1206400    9744.6643   -38615.999    272.40504   0.20949601   -28871.334    4818.2834     99.40789   -6.0786017   0.29413334    99.593998    79.340192    82.186134    841.93428 
  301800      1207200    9884.6636   -38584.582    276.31862   0.21252629   -28699.918     4657.311    98.796201   -6.2790025   0.20051387    98.995735    79.260192    82.089041    849.79828 
  302000      1208000    9914.2331   -38628.188    277.14522   0.22253503   -28713.955    4671.3693     102.0365   -6.4037851   0.16998779     102.2374    79.180192     82.10166    857.96012 
  302200      1208800    9768.0484    -38506.01    273.05873    0.1308938   -28737.961    4698.3385    103.84045   -6.6883373 -0.023781841    104.05563    79.100192     82.07361    866.27976 
  302400      1209600    9833.6651   -38585.555      274.893   0.20594411    -28751.89    4720.3355    104.31431   -6.6762414  -0.13660154    104.52782    79.020192    82.007101    874.70786 
  302600      1210400    9826.9411   -38571.732    274.70503   0.16075101    -28744.79    4716.6893    105.44602   -6.5916368  -0.14571878    105.65195    78.940192    81.959219    883.17756 
  302800      1211200    9831.4984   -38591.694    274.83243   0.24895517   -28760.195    4740.0404     105.4096   -6.5185797  -0.17906622    105.61111    78.860192    81.878052    891.67584 
  303000      1212000    9939.0788   -38593.846    277.83976   0.28351665   -28654.767    4637.1378    107.18882   -6.6230039   -0.1875751     107.3934    78.780192    81.848975    900.08642 
  303200      1212800    9972.7852   -38535.505      278.782   0.23504306    -28562.72    4547.1358    109.98188   -6.6190626   -0.1684224      110.181    78.700192     81.84862    908.79134 
  303400      1213600    9960.5147   -38444.079    278.43899  0.087919714   -28483.564    4490.6592    106.16369   -6.4010232 -0.075825341    106.35651    78.620192    81.659349    917.32299 
  303600      1214400    9786.1884   -38400.724    273.56582  0.075767263   -28614.536    4619.3695    109.68251   -6.6589081  -0.03307314    109.88447    78.540192    81.680148    925.92067 
  303800      1215200    10034.507   -38412.593    280.50738   0.25479165   -28378.087    4396.6515    107.02153    -6.605828  0.051871536    107.22521    78.460192    81.524169    934.64705 
  304000      1216000    9866.5745   -38555.583    275.81296   0.12098691   -28689.008    4720.3744    105.72412   -6.6232624  -0.11331445    105.93144    78.380192    81.407204    943.21468 
  304200      1216800    9833.9849   -38365.448    274.90194   0.23468507   -28531.463    4564.3269    107.95263   -6.7999638   -0.1262972    108.16666    78.300192    81.391068    951.81209 
  304400      1217600     9872.163   -38435.936    275.96918   0.12671293   -28563.773    4611.7243    106.02029   -6.6645643 -0.0076704928    106.22956    78.220192    81.255722    960.48461 
  304600      1218400    9863.3082   -38327.746    275.72165   0.22628615   -28464.437    4519.3578    106.81162   -6.7063387 -0.050542661    107.02196    78.140192    81.198362    968.96577 
  304800      1219200    9817.9963   -38384.893    274.45499    0.2146419   -28566.897     4626.054    107.97684   -6.8661772 -0.029272194    108.19493    78.060192    81.151875    977.64345 
  305000      1220000    9886.5648   -38527.794    276.37177   0.14358952   -28641.229    4697.4377    110.72628   -6.9556915  0.047869755    110.94455    77.980192    81.150436     986.4639 
  305200      1220800    9862.1343   -38641.069    275.68883   0.23752517   -28778.935    4844.9368    109.73911   -6.9168736 0.0062333148    109.95688    77.900192    81.042217    995.27712 
  305400      1221600    9871.2909   -38500.368     275.9448   0.27422541   -28629.077    4696.7652    111.90758   -6.8520382  0.029553983    112.11717    77.820192    81.023939     1004.106 
  305600      1222400    9922.4709   -38480.193     277.3755   0.17157385   -28557.722    4645.2362    109.65099   -6.5216216   0.10506621    109.84481    77.740192    80.879015    1012.9557 
  305800      1223200    9856.2133   -38501.261    275.52331   0.11911902   -28645.048    4733.3391    113.08735   -6.8410177   0.23304187    113.29432    77.660192    80.897572    1021.9576 
  306000      1224000    9748.3258   -38199.108     272.5074    0.2478433   -28450.783    4532.0931    117.60486   -7.1976516   0.16761741    117.82503    77.580192    80.947021    1031.2208 
  306200      1224800    9747.1453   -38559.051     272.4744   0.18284283   -28811.906    4885.6405    121.69562   -7.2758551   0.20928864    121.91311    77.500192    80.983823    1040.7906 
  306400      1225600    9808.9767   -38518.396    274.20285   0.21943913   -28709.419    4810.9249    116.00869   -7.0690609  0.021519603    116.22387    77.420192    80.741274    1050.3156 
  306600      1226400    9852.9946   -38601.323    275.43334   0.22417194   -28748.329    4841.5313    121.30923   -7.4902325 -0.094817513    121.54029    77.340192    80.813171    1059.7759 
  306800      1227200    9858.5928   -38435.154    275.58983   0.19341591   -28576.562    4676.4723    123.19522   -7.5435826  -0.20416195    123.42613    77.260192    80.787052    1069.5672 
  307000      1228000    9777.3267   -38545.162     273.3181  0.093140034   -28767.835    4883.4521    122.22576   -7.5877917  -0.25428148    122.46132    77.180192    80.679487    1079.4669 
  307200      1228800    9806.2672    -38450.36    274.12711    0.1434379   -28644.092    4781.3047    118.60422   -7.5047396  -0.28237362    118.84175    77.100192     80.49607    1089.1399 
  307400      1229600    9707.5206   -38368.766    271.36672   0.23705422   -28661.245    4802.6441    119.40839   -7.4470146  -0.42360794    119.64113    77.020192     80.43891    1098.7034 
  307600      1230400    9768.0703    -38279.33    273.05934   0.27686156    -28511.26     4648.146    122.51653   -7.4176512   -0.3378096    122.74134    76.940192    80.447487    1108.4546 
  307800      1231200    9880.9484   -38498.081    276.21477   0.29570116   -28617.133    4757.7169     124.3367   -7.7532986  -0.09921188    124.57824    76.860192     80.41997    1118.2685 
  308000      1232000    9878.4274   -38528.833    276.14429  0.059818627   -28650.406    4800.3351     125.3069   -7.8231543  -0.13047184    125.55094    76.780192    80.367761    1128.3429 
  308200      1232800    9817.0599   -38497.047    274.42881   0.04359263   -28679.987    4843.4152    124.41614   -7.7370155  -0.16937061    124.65659    76.700192    80.262209    1138.2682 
  308400      1233600    9805.5074   -38435.403    274.10587   0.22599873   -28629.895    4790.7856    127.51898   -8.0024597   -0.3274856    127.77025    76.620192     80.27117    1148.3653 
  308600      1234400    9938.5057   -38471.859    277.82374   0.26425599   -28533.353    4720.9424    122.53498   -7.4915242 -0.085383774     122.7638    76.540192    80.048129     1158.235 
  308800      1235200    9807.1597   -38341.907    274.15206    0.2664318   -28534.747    4721.0908    125.43814   -7.8170483  -0.33629127    125.68193    76.460192    80.051504    1168.1045 
  309000      1236000    9910.9729   -38379.675    277.05408   0.18499834   -28468.702    4646.8947     130.7646   -8.2200672  -0.58399256    131.02401    76.380192    80.124135    1178.3978 
  309200      1236800    9803.6894   -38334.996    274.05505   0.21307955   -28531.307    4723.5697    129.98903   -8.2892618  -0.73759962    130.25515    76.300192    80.022167    1188.7446 
  309400      1237600    9750.1638   -38341.612    272.55878   0.31421933   -28591.448    4803.0223    127.85843   -8.1861256  -0.65234227    128.12188    76.220192    79.881217    1199.0675 
  309600      1238400    9912.5426   -38452.913    277.09796   0.25388107   -28540.371    4760.5119    127.48541   -8.1994174  -0.57670447    127.75012    76.140192    79.790595    1209.2541 
  309800      1239200     9908.531   -38484.111    276.98582   0.29545119    -28575.58    4801.2739     128.4556   -8.1919118  -0.49269703    128.71749    76.060192    79.738234    1219.5122 
  310000      1240000    9826.4472   -38565.855    274.69122   0.24847618   -28739.407    4977.1981    127.80451   -8.2081512  -0.36775309    128.06835    75.980192    79.639687    1229.7682 
  310200      1240800    9888.7539   -38481.384    276.43297    0.2549803    -28592.63    4846.2119    126.51678   -7.9660796  -0.28125912    126.76763    75.900192    79.522524    1240.0095 
  310400      1241600    9678.7262   -38271.699    270.56179   0.23736466   -28592.973    4840.8294    131.29515   -8.4987434   -0.1820384    131.57005    75.820192    79.579736    1250.3582 
  310600      1242400     9834.876   -38320.035    274.92685   0.17146411   -28485.159    4732.2668    134.67459   -8.7200671  -0.13639647    134.95667    75.740192    79.596497    1260.9791 
  310800      1243200    9841.5703   -38232.565    275.11398   0.26793143   -28390.994    4653.7855    133.23341   -8.5351469  -0.23703105    133.50673    75.660192     79.47507     1271.711 
  311000      1244000    9893.7384   -38579.512     276.5723   0.18817632   -28685.773    4944.9047    136.30656   -8.7198188  -0.20510888    136.58534    75.580192     79.48303    1282.5686 
  311200      1244800    9778.9409   -38500.763    273.36322   0.26644269   -28721.822    4977.5238    139.76972   -9.1406969  -0.17571229     140.0684    75.500192    79.502546    1293.6321 
  311400      1245600    9792.2297   -38435.053     273.7347   0.30503441   -28642.824    4923.0448    136.41555    -8.932011  -0.35904075    136.70813    75.420192    79.326538    1304.7913 
  311600      1246400    9817.5506   -38544.088    274.44253   0.21535764   -28726.537    5029.5262     133.8405   -8.7843519  -0.39757039    134.12906    75.340192     79.17285    1315.6996 
  311800      1247200    9796.7336   -38495.652     273.8606   0.20225889   -28698.919    4999.4789     137.0057   -9.0276099  -0.38384517    137.30334    75.260192    79.183544    1326.6109 
  312000      1248000    9927.7451    -38438.09    277.52293   0.31164081   -28510.345    4819.1925    137.42802   -9.0289477  -0.21278727    137.72447    75.180192    79.115576    1337.5995 
  312200      1248800    9795.4419   -38316.601    273.82449   0.17397117   -28521.159    4831.0424    140.10045   -9.1618952 -0.0029732653     140.3997    75.100192    79.112012    1348.7178 
  312400      1249600     9820.623    -38388.88    274.52842   0.18079211   -28568.257    4889.7119    140.33016   -9.2040537  -0.11225975    140.63172    75.020192    79.038641    1359.9957 
  312600      1250400    9805.6319   -38569.913    274.10935    0.3363234   -28764.281    5091.7948    141.19065   -9.1217083 -0.085427522    141.48503    74.940192    78.983021    1371.2857 
  312800      1251200    9860.8576   -38441.058    275.65314   0.29427406     -28580.2    4928.0943    138.55777   -9.0063531   -0.1119256    138.85021    74.860192    78.827741    1382.3839 
  313000      1252000    9807.9767    -38493.54     274.1749   0.23481773   -28685.564    5045.8925    138.29795   -8.9531704  -0.15076084    138.58754    74.780192    78.740236    1393.3982 
  313200      1252800    9821.8061   -38442.217    274.56149   0.15422775   -28620.411    4996.8891    137.59012   -8.9078242  -0.30819365    137.87852    74.700192    78.639978     1404.546 
  313400      1253600    9797.3886   -38394.517    273.87891   0.19248922   -28597.129    4990.6989    136.34711   -8.7303396  -0.34514705    136.62676    74.620192    78.524213    1415.4763 
  313600      1254400    9712.0957   -38598.035    271.49461   0.23257783    -28885.94    5274.2435    139.98731   -9.0318458  -0.28970317    140.27867    74.540192    78.548554    1426.7101 
  313800      1255200    9681.8682   -38291.086    270.64962   0.29097741   -28609.218    4995.7944    143.03973   -9.2127548  -0.79766368    143.33832    74.460192    78.555972      1438.15 
  314000      1256000     9906.688    -38426.49     276.9343   0.26263189   -28519.802    4905.8994    145.51577   -9.4126212  -0.62696979    145.82123    74.380192    78.546912    1449.6995 
  314200      1256800    9676.3583   -38399.337     270.4956   0.28182822   -28722.979    5110.1138    148.22482   -9.3317338  -0.61670139    148.51956    74.300192    78.544008     1461.492 
  314400      1257600    9873.9621   -38699.097    276.01947   0.25423935   -28825.135    5234.8765    145.64398   -9.1258261  -0.57828063    145.93075    74.220192    78.390042    1473.2928 
  314600      1258400    9906.3594   -38493.047    276.92511   0.21025605   -28586.688    4988.8045    150.28767   -9.3798856   -0.5379872    150.58106    74.140192    78.442908    1485.1228 
  314800      1259200    9869.9543   -38363.148    275.90744   0.23151707   -28493.194    4920.9286    147.21155    -9.113242  -0.73850977    147.49521    74.060192    78.274741    1497.0749 
  315000      1260000    9788.6958   -38427.004    273.63591   0.23752952   -28638.308    5078.3673    146.81194   -9.0407596  -0.58429237     147.0912    73.980192    78.183197     1508.924 
  315200      1260800     9801.739   -38220.826    274.00053   0.31057894   -28419.087    4879.8804    144.83293    -8.974921  -0.94804014    145.11384    73.900192    78.046701    1520.5952 
  315400      1261600     9815.489   -38307.963     274.3849    0.1629647   -28492.474    4956.6167    147.06714   -9.1249012  -0.46012176    147.35067    73.820192    78.030611    1532.2211 
  315600      1262400     9818.581   -38526.087    274.47133   0.19359043   -28707.506    5166.7634    151.36895   -9.4892071  -0.59314769    151.66726    73.740192    78.073942    1544.1628 
  315800      1263200    9896.5445   -38389.853    276.65075   0.26423545   -28493.308    4955.5964    153.14854   -9.4203159  -0.44031475    153.43863    73.660192    78.044552    1556.3887 
  316000      1264000    9796.4549   -38373.803    273.85281   0.27609608   -28577.348    5059.1515    151.24292   -9.5901892  -0.20720313    151.54681    73.580192      77.9105    1568.6277 
  316200      1264800    9778.8514   -38268.216    273.36072   0.31923106   -28489.364    4966.8055    154.67685   -9.8358604 -0.031455282    154.98927    73.500192    77.928857    1580.8021 
  316400      1265600    9770.0722   -38304.416     273.1153   0.23425941   -28534.344    5025.0441    154.49113   -9.8644075  -0.12230851    154.80579    73.420192    77.843614    1593.1597 
  316600      1266400    9975.0574   -38377.783    278.84552    0.3291551   -28402.725    4890.4068    158.42887   -9.7633298  -0.24083714    158.72961    73.340192    77.875723    1605.7642 
  316800      1267200    9945.9748   -38347.902    278.03253   0.15889601   -28401.927    4919.3632    154.68278   -9.9067578  -0.34600558    155.00008    73.260192    77.689165    1618.3085 
  317000      1268000    9824.6399   -38314.818     274.6407   0.24947057   -28490.178    5018.8321    154.42226   -9.8215683  -0.19224831     154.7344    73.180192    77.601575    1630.6923 
  317200      1268800    9822.5602   -38386.394    274.58257   0.34096887   -28563.834    5098.0709    156.09744   -9.8118262   -0.1079622    156.40554    73.100192    77.569321    1643.1377 
  317400      1269600    10008.612   -38308.413    279.78352   0.29758169     -28299.8    4848.6988    155.71444   -9.6632336  -0.16036089    156.01407    73.020192    77.478136    1655.6843 
  317600      1270400    9865.4881    -38368.65    275.78259   0.20641247   -28503.162    5065.8238    155.37543   -9.5209948 -0.084419511    155.66689    72.940192    77.388217    1668.1433 
  317800      1271200    9809.1489   -38293.346    274.20766   0.35167006   -28484.197    5056.9765    155.54256   -9.4632439   0.12407763    155.83021    72.860192    77.312883    1680.5092 
  318000      1272000    9750.4193   -38247.208    272.56592   0.29714761   -28496.788    5057.4915    160.85996   -9.7352197 -0.090164867     161.1543    72.780192       77.385     1693.169 
  318200      1272800    9813.9962   -38403.439    274.34317    0.2675929   -28589.443    5177.9369    157.80052   -9.4649252 -0.079389074    158.08414    72.700192    77.217281    1705.9186 
  318400      1273600    9794.8772   -38505.031    273.80871   0.23390311   -28710.154    5307.5045    158.44353   -9.6659058  -0.64354463     158.7394    72.620192    77.156003    1718.5173 
  318600      1274400    9982.2552   -38419.684    279.04673   0.36664124   -28437.428    5048.3285    158.05077   -9.6619957  -0.72713437     158.3475    72.540192    77.064806    1731.1968 
  318800      1275200    9762.8558   -38467.039    272.91357    0.4066817   -28704.183    5310.2637    161.48029   -10.052544   -1.0339712    161.79619    72.460192     77.08334    1744.0456 
  319000      1276000    9755.8092   -38435.334    272.71659   0.23777751   -28679.524    5310.1968    158.87989   -10.034249   -1.2274116    159.20117    72.380192    76.929197    1756.7935 
  319200      1276800    9955.3703   -38371.406    278.29518   0.25785098   -28416.036    5042.4479    163.38231   -10.501952   -1.4261559    163.72569    72.300192    76.978469    1769.6976 
  319400      1277600    9799.3862    -38306.71    273.93476   0.21433503   -28507.323    5167.6035    159.44905   -9.9594191   -1.4847258    159.76669    72.220192    76.785354    1782.6425 
  319600      1278400    9788.1588   -38258.399     273.6209   0.34655895    -28470.24    5134.5127     160.9443   -10.056038   -1.5917346    161.26601    72.140192    76.748192    1795.5526 
  319800      1279200    9843.4346   -38311.584     275.1661   0.25165811   -28468.149     5144.694    160.53938   -9.6939302   -1.3682019    160.83761    72.060192    76.655952    1808.4072 
  320000      1280000    9825.8845   -38364.802     274.6755   0.36866893   -28538.918     5216.558    162.85571   -9.9586563   -1.3340805    163.16537    71.980192    76.642459    1821.4483 
  320200      1280800    9806.7155   -38410.974    274.13964   0.32656771   -28604.259    5302.6136    161.39694   -9.8325774    -1.301436    161.70141    71.900192    76.520632    1834.4123 
  320400      1281600     9945.417   -38349.288    278.01694   0.28177786   -28403.871    5106.4924    163.36128   -10.083373   -1.2908335    163.67727    71.820192    76.497085    1847.4389 
  320600      1282400    9742.5462   -38249.983    272.34584   0.25578801   -28507.436    5225.6288    163.32594    -9.965729   -1.1166399    163.63351    71.740192    76.415835    1860.5321 
  320800      1283200    9687.8365   -38217.191    270.81646   0.27213718   -28529.355    5246.5037    166.32121   -10.273592   -1.1386072     166.6421    71.660192    76.421794    1873.6733 
  321000      1284000    9889.0121   -38297.727    276.44018    0.1513273   -28408.715    5128.2733    168.39636   -10.375657   -1.3364486      168.721    71.580192    76.401192    1887.1429 
  321200      1284800     9858.208   -38266.894    275.57908   0.28245396   -28408.686     5136.226    169.08343   -10.741893   -1.4221481    169.43028    71.500192    76.341457    1900.6644 
  321400      1285600    9695.8893   -38316.055    271.04157   0.33477047   -28620.165    5357.8066    169.56279   -10.510683    -1.249782    169.89284    71.420192    76.274673     1914.281 
  321600      1286400    9815.4011   -38314.548    274.38244   0.37003968   -28499.147    5255.1502    168.91289   -10.452073   -1.1704026    169.24001    71.340192    76.176021    1927.7704 
  321800      1287200    9938.5277   -38289.784    277.82436   0.23037569   -28351.256    5126.5463    167.93941    -10.54504  -0.89119102    168.27251    71.260192    76.068378     1941.286 
  322000      1288000    9824.0098   -38269.291    274.62309   0.27751651   -28445.282     5214.706     172.2879   -10.888081  -0.89510229    172.63393    71.180192     76.11299    1954.9069 
  322200      1288800     9953.429   -38209.756    278.24091    0.2136083   -28256.327    5027.5622    174.31953   -10.754572  -0.68572691    174.65231    71.100192    76.090658    1968.7383 
  322400      1289600    9943.0686   -38284.282    277.95129    0.3516899   -28341.213    5121.8927    174.97101   -11.087702   -0.7071715     175.3234    71.020192    76.029832    1982.6768 
  322600      1290400     9809.669   -38125.228     274.2222   0.43697481   -28315.559    5101.9827     176.0804   -11.160979  -0.77481125    176.43547    70.940192    75.981605    1996.7306 
  322800      1291200    9909.2074   -38298.059    277.00473    0.3245887   -28388.851    5180.2974    178.12035   -11.594657   -0.5654948    178.49822    70.860192    75.960541    2010.8874 
  323000      1292000    9889.9612   -38180.668    276.46671   0.29320315   -28290.707     5079.239    181.91266   -11.532923  -0.51485434     182.2786    70.780192    75.988552    2025.2766 
  323200      1292800    9850.4915   -38235.615    275.36337   0.25742978   -28385.123     5190.889    181.14788   -11.667124  -0.78710652    181.52492    70.700192    75.887018    2039.7393 
  323400      1293600    9898.1705   -38311.833     276.6962   0.33317599   -28413.663    5258.9429    176.06225    -11.20937  -0.86290203    176.42084    70.620192    75.661187    2054.0558 
  323600      1294400    9868.4027   -38222.325    275.86406   0.40374819   -28353.922    5213.3336    175.84108   -10.962769  -0.56070258    176.18337    70.540192    75.574402    2067.9811 
  323800      1295200    9909.1429   -38236.742    277.00292   0.32306215   -28327.599    5190.3141    177.91114   -10.879518  -0.51336725    178.24422    70.460192    75.553284    2082.2457 
  324000      1296000    9780.8486   -38259.923    273.41655   0.40381972   -28479.074    5363.1364    176.68709   -10.735548  -0.50529416    177.01366    70.380192    75.438125    2096.4727 
  324200      1296800    9816.3113   -38293.824    274.40789   0.32795486   -28477.512    5341.7497    183.75083   -11.218704  -0.78678918    184.09467    70.300192    75.560439    2110.8728 
  324400      1297600    9903.3117   -38128.488    276.83992    0.2250972   -28225.176    5109.6278    182.95929   -11.190389   -0.4484724    183.30174    70.220192    75.457784    2125.5897 
  324600      1298400    9746.5888    -38284.54    272.45884   0.25110399   -28537.951    5427.1089    184.42887   -11.321474  -0.29849173    184.77628    70.140192    75.419914    2140.3061 
  324800      1299200    9755.2577   -38449.846    272.70117   0.38372301   -28694.589    5596.7701    184.21295   -11.349733  -0.37720368    184.56264    70.060192     75.33381    2155.2334 
  325000      1300000    9798.1748   -38304.699    273.90089   0.40829321   -28506.525    5436.8384    181.56425   -11.493504  -0.19543865    181.92777    69.980192    75.178528     2169.869 
  325200      1300800    9935.8478    -38248.51    277.74944   0.24114351   -28312.662    5235.8485    185.92961   -11.995994  -0.28777789    186.31641    69.900192    75.223918    2184.5667 
  325400      1301600    9842.0925   -38199.506    275.12858   0.28299042   -28357.414    5290.1955    187.51315   -11.876963 -0.048088856    187.88892    69.820192    75.188847     2199.616 
  325600      1302400    9851.0699   -38332.782    275.37954   0.18708631   -28481.712    5433.3247    186.47841   -12.065148    0.1534147    186.86837    69.740192    75.079688      2214.61 
  325800      1303200    9847.0895   -38236.285    275.26827    0.2253828   -28389.196    5357.2195    185.87809    -12.02267  0.070009445    186.26652    69.660192    74.982492    2229.4826 
  326000      1304000    9717.4519   -38342.555    271.64434   0.35027041   -28625.103    5599.2492    187.46011   -12.290565   0.18812779    187.86268    69.580192    74.948097    2244.4772 
  326200      1304800    9816.5529   -38192.172    274.41464   0.35491028   -28375.619     5365.325    187.10915   -11.932944  0.044826468    187.48928    69.500192    74.857428    2259.4773 
  326400      1305600    9848.7428   -38159.619    275.31448   0.42192046   -28310.876     5278.394    194.52685   -12.242945  0.014649677    194.91174    69.420192    74.989498    2274.7304 
  326600      1306400    9805.2039   -38067.986    274.09739   0.31629259   -28262.782    5253.8092    193.41491    -12.49479   -0.3093102    193.81832    69.340192    74.878258    2290.2981 
  326800      1307200    9878.9149   -38093.375    276.15792   0.26153619   -28214.461    5241.6026    189.63857   -12.446745  -0.33946146    190.04689    69.260192    74.690503    2305.5739 
  327000      1308000    9859.3682   -38086.089    275.61151   0.27310893   -28226.721    5245.9236    193.38777    -12.35184  -0.36747682    193.78218    69.180192    74.717225    2320.9577 
  327200      1308800    9900.2702   -38246.231     276.7549   0.43316057   -28345.961    5378.9539    193.29555     -12.5696  -0.46949918    193.70438    69.100192    74.635002    2336.4107 
  327400      1309600    9870.2757   -38298.572    275.91642   0.33938382   -28428.296    5462.7191    195.93257   -12.737088  -0.32973014    196.34641    69.020192    74.630489    2351.9811 
  327600      1310400    9796.6859   -38049.815    273.85927   0.35684136   -28253.129    5290.4718    198.73539   -13.063733   -0.6587344    199.16538    68.940192    74.631031    2367.8438 
  327800      1311200    9837.3509   -38122.311    274.99603   0.27100711    -28284.96    5351.9069    196.49549   -12.910002   -0.2164661    196.91926    68.860192    74.486856    2383.7044 
  328000      1312000    9828.4441   -38087.952    274.74705   0.44884133   -28259.508    5357.0921    193.43381   -12.733465  -0.03912028    193.85248    68.780192    74.319234    2399.3857 
  328200      1312800    9938.7828   -38164.156    277.83148   0.48985495   -28225.373    5339.1333    192.53019   -12.836665  -0.13322729     192.9577    68.700192    74.213669    2414.7232 
  328400      1313600    9858.1943   -38098.741    275.57869   0.39279385   -28240.546    5355.5231    195.25561   -12.693487 -0.031068564    195.66778    68.620192      74.2111    2430.3825 
  328600      1314400    9786.1477   -38114.531    273.56468   0.32482917   -28328.384    5496.8722    188.91157   -12.378069  -0.10997021    189.31669    68.540192     73.94964    2445.6443 
  328800      1315200    9824.5954   -38076.095    274.63946    0.3072108     -28251.5    5421.3551    191.51842   -11.949894   0.18330032    191.89096    68.460192     73.94319    2460.8495 
  329000      1316000    9768.5852   -37925.709    273.07373   0.44172233   -28157.124    5348.7575    189.91847   -11.547419 -0.018176243     190.2692    68.380192    73.816855    2476.1205 
  329200      1316800    9836.5278    -38228.16    274.97302   0.40454848   -28391.632    5586.8172    191.65481   -12.153946 -0.053385323    192.03981    68.300192    73.787443    2491.3383 
  329400      1317600    9856.9913   -38270.801    275.54506   0.30208358    -28413.81    5598.7275    196.72038   -12.200259 -0.044622976    197.09834    68.220192    73.851973    2506.8756 
  329600      1318400    9844.4267   -38137.611    275.19383   0.26379468   -28293.184     5494.212    196.93097   -12.158499 0.0072786677    197.30595    68.140192    73.777904    2522.5727 
  329800      1319200    9802.1857   -38123.758    274.01301   0.35893846   -28321.573    5508.5015    202.02551   -12.792838   -0.2579681    202.43031    68.060192    73.844315    2538.5773 
  330000      1320000    9865.3448   -38148.099    275.77858   0.32185521   -28282.754    5491.1083    201.02286   -12.364472  -0.31968885    201.40301    67.980192    73.734963    2554.7791 
  330200      1320800    9879.4265   -38146.056    276.17222   0.30897649   -28266.629    5483.4634    202.01591   -12.308121  -0.40385065    202.39091    67.900192    73.683189    2570.8861 
  330400      1321600    9820.7026   -38095.716    274.53064    0.4061474   -28275.014    5484.9058    205.98981   -12.650139  -0.32796475    206.37814    67.820192     73.71711    2587.1465 
  330600      1322400    9859.1821   -38056.459    275.60631   0.36206818   -28197.276    5391.9701     211.3673   -13.142284   -0.3056531     211.7757    67.740192    73.791326     2603.991 
  330800      1323200    9825.9276   -38145.469     274.6767    0.4021916   -28319.541    5532.6428    211.44565   -12.879648  -0.26402729    211.83771    67.660192    73.713098    2620.8359 
  331000      1324000    9806.5439   -38086.894    274.13484   0.29192661   -28280.351    5509.1063      211.631   -13.128901  -0.29028413    212.03804    67.580192    73.638821    2637.9096 
  331200      1324800    9873.6497   -38056.418    276.01074   0.34445842   -28182.768     5423.474    212.69015   -13.315842  -0.34383139    213.10685    67.500192    73.589359    2654.9258 
  331400      1325600    9995.2903   -38187.371    279.41111   0.28192821   -28192.081    5443.0123    213.81597    -13.46042  -0.49480873    214.23981    67.420192    73.541729    2672.1463 
  331600      1326400    10055.168   -38077.247    281.08495   0.38009736   -28022.079    5315.7965    209.24341   -13.051493 -0.0059233411    209.65006    67.340192    73.330593    2689.1186 
  331800      1327200    9852.7231   -37949.902    275.42575    0.4339068   -28097.179     5407.774    208.94236   -13.349377 -0.090277313     209.3684    67.260192    73.242546    2705.8641 
  332000      1328000    9894.4211   -38160.869    276.59139   0.32262902   -28266.448    5562.2381     213.9514   -13.341728 -0.095271156    214.36701    67.180192    73.305363    2722.7885 
  332200      1328800    9935.1682   -38106.122    277.73044   0.41410117   -28170.953    5490.1062    213.26939   -13.243521  0.080787845     213.6802    67.100192     73.20574    2739.9587 
  332400      1329600    9720.9211   -37939.371    271.74132   0.19791956    -28218.45    5559.4841    212.74473   -13.043139  -0.34880162    213.14447    67.020192    73.110434    2757.0511 
  332600      1330400    9749.6004   -38053.282    272.54303   0.25730005   -28303.682    5653.9013    214.06663   -12.878033  -0.07969988    214.45366    66.940192    73.067839     2774.317 
  332800      1331200    9894.3224   -38066.321    276.58863   0.39448553   -28171.998    5525.0662    216.07077   -12.817073 -0.0035002835    216.45058    66.860192    73.044894    2791.5427 
  333000      1332000    9993.7194   -38110.893     279.3672   0.45769183   -28117.174     5467.184    219.01403   -12.939626  -0.39132325     219.3963    66.780192    73.049057    2808.9288 
  333200      1332800    9699.2821   -38074.888    271.13642   0.41779107   -28375.606    5754.3881    217.35979   -13.188519  -0.40131932    217.75991    66.700192    72.922303    2826.5047 
  333400      1333600    9768.6023   -38032.958    273.07421   0.28041371   -28264.355    5647.3145    219.60478    -13.46699  0.051438685    220.01733    66.620192    72.906801    2844.0275 
  333600      1334400    9845.5874   -37967.855    275.22628   0.29704851   -28122.268     5535.062    217.96343   -13.513836   0.14868289    218.38201    66.540192    72.780078    2861.7048 
  333800      1335200    9760.0393    -37968.82    272.83484   0.28752487   -28208.781    5630.1531    219.44624    -13.62198   0.19574004    219.86871    66.460192    72.742555    2879.2591 
  334000      1336000    9733.6845   -38171.295    272.09811   0.29548241    -28437.61    5858.6419     222.1337   -13.465801   0.14712926    222.54153    66.380192    72.738921    2896.9212 
  334200      1336800    9763.7008   -38354.749     272.9372   0.38052683   -28591.049    6045.5159    218.93321   -13.395427  -0.15371631    219.34268    66.300192    72.567525    2914.5645 
  334400      1337600    9918.0753   -38167.128    277.25262   0.46095775   -28249.053     5699.647    222.25547   -13.496994  -0.28843948     222.6651    66.220192    72.582452    2932.2152 
  334600      1338400    9784.2938   -38253.765    273.51286   0.36239838   -28469.471    5909.8497    226.91452   -13.827483  -0.40741011    227.33579    66.140192      72.6359    2950.1957 
  334800      1339200    9834.3703   -37979.809    274.91271    0.2905742   -28145.439    5589.6999    229.45299   -13.948765  -0.20680325    229.87668    66.060192    72.628497    2968.5236 
  335000      1340000    9791.4114   -38027.725    273.71182   0.37014032   -28236.313    5698.7028    229.45104    -14.34509  -0.28796529    229.89921    65.980192     72.54914    2986.7658 
  335200      1340800    9916.7358   -37999.931    277.21518   0.44740195   -28083.195    5565.8834    228.70203   -14.335679  -0.35344408    229.15116    65.900192    72.447768    3005.2029 
  335400      1341600    9931.8358   -38061.116    277.63729   0.48141713    -28129.28    5636.8029    227.73031   -13.902334  -0.32883698     228.1545    65.820192    72.339292    3023.4586 
  335600      1342400    9833.6231   -37984.629    274.89182   0.31971401   -28151.005    5684.6446    226.74443   -13.956897  -0.44156106      227.174    65.740192    72.231277    3041.7013 
  335800      1343200    9746.8936   -37967.226    272.46736   0.33110375   -28220.332    5767.1906    227.62553   -13.533717  -0.42296844     228.0279    65.660192    72.175675    3059.7623 
  336000      1344000    9888.9172    -37892.61    276.43753   0.33711948   -28003.693    5543.8231    231.45131   -13.859017   -0.7911651    231.86722    65.580192    72.205369    3078.1333 
  336200      1344800    9933.9188   -37878.279    277.69552   0.33584569    -27944.36    5503.3541    231.44292   -13.809274  -0.78694539    231.85586    65.500192    72.125045    3096.7425 
  336400      1345600    9820.9306   -37896.614    274.53701   0.28512865   -28075.683    5642.5668    232.89594   -13.709063  -0.65569138        233.3    65.420192    72.086306    3115.2112 
  336600      1346400    9820.9361   -38025.205    274.53717   0.37542794   -28204.269    5783.3752    233.53177   -13.967767  -0.65262233    233.95002    65.340192    72.024878    3133.7888 
  336800      1347200     9878.729   -38065.998    276.15273   0.49271107   -28187.269    5763.0084    236.69587   -14.162743  -0.46095101    237.11965    65.260192    72.035439     3152.465 
  337000      1348000    9828.7812   -38062.251    274.75647   0.34126165    -28233.47    5843.2879     234.3825   -14.017147  -0.56437486    234.80195    65.180192    71.889219    3171.3635 
  337200      1348800    9818.8982   -38043.107     274.4802   0.38350082   -28224.209    5852.0853    234.75843   -13.875667  -0.55169496    235.16879    65.100192      71.8197     3190.124 
  337400      1349600    9865.9016   -37857.538    275.79414   0.37369264   -27991.636    5643.4088    234.23095   -14.067912  -0.13801222    234.65307    65.020192    71.724965    3208.8272 
  337600      1350400    9879.9662   -37788.195    276.18731   0.40959088   -27908.229    5564.0738    236.47047   -13.970149  -0.33825533    236.88302    64.940192    71.708678    3227.7129 
  337800      1351200    9873.7128   -37819.627     276.0125   0.40284342   -27945.914    5626.3762    235.53448   -13.668664 -0.080993254    235.93077    64.860192    71.601471    3246.4983 
  338000      1352000    9924.2649   -37901.606    277.42565   0.42313277   -27977.341    5676.5707     235.3616    -13.79617  -0.26226063    235.76575    64.780192    71.516756    3265.4051 
  338200      1352800    9776.2768   -37837.624    273.28875   0.30206591   -28061.347    5763.3122    237.61093   -13.775953  -0.65170503    238.01083    64.700192    71.500901    3284.3373 
  338400      1353600    9903.7969   -37933.673    276.85348   0.42589422   -28029.876    5747.9615    237.88467   -13.753794   -0.4542192    238.28237    64.620192    71.428659     3303.346 
  338600      1354400     9849.681   -37808.667    275.34071   0.41240659   -27958.986    5654.7689    243.91042    -14.65423  -0.26715255    244.35038    64.540192    71.522031    3322.6598 
  338800      1355200    9763.0266   -37790.171    272.91835   0.42113252   -28027.144    5722.9906    247.19824   -14.817252  -0.16844389    247.64198    64.460192    71.536077    3342.3498 
  339000      1356000    9905.5185   -37892.811    276.90161   0.34468033   -27987.292    5702.7038    247.09237   -14.796369  -0.31198357    247.53519    64.380192    71.453026    3362.1777 
  339200      1356800    9851.8229   -37892.371    275.40058   0.36563829   -28040.548    5778.6206     246.3321   -14.506003  -0.19359538    246.75892    64.300192    71.350847    3381.9048 
  339400      1357600    9958.7138   -37739.408    278.38864   0.57180163   -27780.694    5531.5561    247.24063   -14.713356 -0.050882314    247.67805    64.220192    71.297107    3401.6136 
  339600      1358400    9825.9325   -37851.369    274.67684    0.3714315   -28025.437    5783.5692    249.32083   -14.773584  -0.23458168    249.75827    64.140192    71.276542     3421.566 
  339800      1359200    9936.1199   -37736.202    277.75705   0.35767155   -27800.082       5571.7     250.4783   -14.875694   0.05072605    250.91964    64.060192    71.229724     3441.634 
  340000      1360000    9874.3217    -37795.83    276.02952   0.38305536   -27921.508    5693.9305    253.03075   -14.983302  -0.42622883    253.47434    63.980192    71.222716    3461.7547 
  340200      1360800    9761.7305   -37778.969    272.88212   0.51566081   -28017.238    5827.3061     250.3716   -14.869298  -0.28985809    250.81292    63.900192    71.066675    3481.9411 
  340400      1361600    9796.6499   -37807.005    273.85826   0.47921189   -28010.355    5833.6686    251.32372   -15.102315 -0.098913978    251.77709    63.820192    71.014223    3502.0534 
  340600      1362400    9875.8099   -37709.896    276.07113   0.31851118   -27834.086    5669.6713    252.86859   -15.093646  -0.50252151    253.31916    63.740192    70.978282    3522.4075 
  340800      1363200     9879.929   -37688.924    276.18627   0.31297649   -27808.995    5637.9243     256.7204   -15.256199  -0.39820697    257.17363    63.660192     71.00841    3542.9097 
  341000      1364000     9847.045    -37942.87    275.26702   0.32253086   -28095.825    5928.9004    258.51918   -15.521336  -0.44768396    258.98509    63.580192    70.980166    3563.4769 
  341200      1364800    9853.1818   -37774.041    275.43857   0.49835293   -27920.859     5809.996    253.21256   -14.948776  -0.25326591    253.65357    63.500192    70.747836    3583.9251 
  341400      1365600    9889.4482   -37857.715    276.45237   0.51369742   -27968.266     5836.538    258.71916   -15.351094  -0.25017249    259.17431    63.420192    70.825572    3604.3734 
  341600      1366400    9790.9062    -37737.65     273.6977   0.41516279   -27946.744    5838.2481    258.80917   -14.859301  -0.62530949    259.23614    63.340192    70.747339    3625.2206 
  341800      1367200    9891.2048   -37833.123    276.50148   0.29758839   -27941.918    5834.1019    261.62002   -15.170688  -0.49577761    262.05998    63.260192     70.74802    3645.9629 
  342000      1368000    9822.8539   -37887.663    274.59078   0.25227635   -28064.809    6005.1591     257.9141   -15.114826  -0.32632907    258.35682    63.180192    70.562215    3666.8138 
  342200      1368800    9886.6698   -37710.276    276.37471   0.36518253   -27823.606    5773.4815    259.24256   -15.484207  -0.18656067    259.70464    63.100192    70.520724    3687.5366 
  342400      1369600    9831.9256   -37654.714    274.84437   0.51969063   -27822.789    5817.9572    255.80172   -15.267268   0.39089281    256.25722    63.020192    70.342227    3708.2629 
  342600      1370400    9801.1143   -37806.193    273.98306     0.508502   -28005.079    6006.9036    257.48094   -15.130169   0.12002355    257.92512    62.940192    70.309881    3728.7587 
  342800      1371200    9834.7537   -37891.332    274.92343   0.45474737   -28056.578    6074.5301    258.34424   -15.225521  0.043006001    258.79251    62.860192    70.254663    3749.4297 
  343000      1372000    9931.0673   -37665.869    277.61581   0.43602172   -27734.801    5774.6048    258.26093   -14.579591 -0.082489394    258.67215    62.780192    70.171224    3770.0875 
  343200      1372800    9840.1222   -37648.785     275.0735   0.42510736   -27808.663    5878.4334    257.03064   -14.535783   -0.4037535    257.44165    62.700192    70.056067    3790.7185 
  343400      1373600    9859.9554   -37761.442    275.62792   0.40838309   -27901.487      5942.22    263.49128   -14.846585  -0.39358899    263.90951    62.620192    70.160863    3811.4987 
  343600      1374400    9823.1805   -37678.596    274.59991   0.50412237   -27855.416    5889.9734    266.98194   -15.093274   -1.0466224    267.41028    62.540192    70.180885    3832.8143 
  343800      1375200     9689.281    -37691.35    270.85684   0.49656944   -28002.069    6082.8875     263.7184   -14.983865  -0.52319293    264.14425    62.460192     70.00757    3853.9906 
  344000      1376000    9875.9905   -37814.394    276.07617   0.47222951   -27938.404    6016.9875    266.99993    -15.73702  -0.56320843    267.46389    62.380192    70.022417     3875.265 
  344200      1376800    9873.4635   -37816.516    276.00553   0.31010165   -27943.053    6031.5949    268.53116     -16.1627  -0.29005148    269.01729    62.300192      69.9868    3896.7742 
  344400      1377600    9908.5097   -37644.963    276.98522   0.51452124   -27736.454    5845.4413    268.54989   -16.226565  -0.16179474    269.03972    62.220192    69.907441    3918.3088 
  344600      1378400    9824.7994   -37732.855    274.64516   0.46497163   -27908.055    6040.3975    268.12056   -16.644891  -0.40491594    268.63702    62.140192    69.815935    3939.8514 
  344800      1379200    9726.0264   -37579.231    271.88404   0.52633618   -27853.205    5991.5826    270.17084      -16.995   0.17680964     270.7049    62.060192    69.795017    3961.4189 
  345000      1380000    9745.7282   -37575.469    272.43478   0.45649696   -27829.741    5982.4643     271.1948   -16.744926 -0.051594106    271.71127    61.980192    69.743771    3983.0907 
  345200      1380800    9833.8067   -37652.406    274.89695   0.45271347   -27818.599    6007.0128    269.49395   -16.416762  -0.38640517    269.99379    61.900192      69.6147    4004.7698 
  345400      1381600    9797.0552   -37636.215    273.86959   0.43093279    -27839.16    6019.5223    273.21367   -15.807837  -0.72625635    273.67157    61.820192    69.639779    4026.5405 
  345600      1382400    9787.3769    -37727.45    273.59904    0.4517208   -27940.073    6127.7571    275.07297   -16.101822  -0.68923459     275.5447    61.740192    69.613297    4048.4681 
  345800      1383200    9626.2857   -37669.467    269.09586   0.32285023   -28043.181     6238.438    276.92465   -16.167619  -0.69823502    277.39709    61.660192    69.586223     4070.531 
  346000      1384000    9930.5945   -37519.558    277.60259   0.49067974   -27588.963    5772.1563    281.22541   -15.977694  -0.73540627    281.67989    61.580192    69.628589    4092.9266 
  346200      1384800    9829.6704   -37683.812    274.78133   0.44797303   -27854.142    6036.2294    284.25991     -16.2027  -0.93546787    284.72285    61.500192     69.63553    4115.5764 
  346400      1385600     9710.227   -37609.378    271.44237   0.33996874   -27899.151    6120.5955    282.26715   -16.724461   -1.0131983      282.764    61.420192    69.499563    4138.3316 
  346600      1386400    9752.4049   -37558.802    272.62143   0.46631213   -27806.397    6078.8014    278.56457   -16.374407   -1.3501636    279.04868    61.340192    69.313411    4160.8427 
  346800      1387200    9842.1256   -37591.967     275.1295   0.44250238   -27749.841    6017.0454    281.81533   -17.256149   -1.4479336    282.34686    61.260192    69.327645    4183.3126 
  347000      1388000    9822.0751    -37536.26    274.56901   0.54095759   -27714.185    6007.3274     281.4821   -17.613537   -1.6208264    282.03729    61.180192      69.2388    4206.0143 
  347200      1388800    9903.6002   -37505.459    276.84798   0.48648863   -27601.859    5922.6814     280.8662   -17.728828  -0.74367334    281.42617    61.100192    69.141339    4228.4634 
  347400      1389600    9710.4108   -37526.016    271.44751   0.43736093   -27815.605    6115.3109    286.24927   -18.043757  -0.93929763    286.81894    61.020192    69.215418    4251.2832 
  347600      1390400     9855.252   -37599.671    275.49644   0.46589245   -27744.419    6091.4163    283.13919    -17.73581  -0.76642023    283.69517    60.940192    69.046168    4274.1053 
  347800      1391200    9973.7805   -37641.586    278.80982   0.50782358   -27667.806    5999.2752    287.65374   -17.563469 -0.026339064    288.18944    60.860192    69.094576    4296.9551 
  348000      1392000    9938.8199   -37752.789    277.83252   0.39569611   -27813.969    6141.5296    291.25239   -17.942907   0.38462436    291.80482    60.780192    69.117872    4320.1382 
  348200      1392800    9943.3397   -37612.384    277.95887   0.43949496   -27669.045    6017.1611    291.82312   -17.680018   0.27674753    292.35833    60.700192    69.053687    4343.5014 
  348400      1393600     9804.804   -37475.907    274.08621   0.48049772   -27671.103    6017.4593    294.62672   -17.297625   0.53766424    295.13455    60.620192    69.053007    4366.8969 
  348600      1394400    9742.4533   -37679.165    272.34324   0.50716189   -27936.712    6249.5154    301.15197   -17.464075   0.69806022    301.65873    60.540192    69.159412     4390.747 
  348800      1395200    10035.712    -37564.95    280.54108   0.46216225   -27529.238    5906.7277    296.47793    -17.77795   0.60403201    297.01108    60.460192    68.946623    4414.7595 
  349000      1396000    9838.0096   -37584.719    275.01444   0.39247057    -27746.71    6172.8959    293.54157   -18.001425  0.023655719    294.09303    60.380192     68.78325    4438.2991 
  349200      1396800    9819.8209   -37584.705    274.50599   0.48862582   -27764.884    6214.1901     293.5163   -18.019703  -0.13545988    294.06895    60.300192    68.702562    4461.8467 
  349400      1397600    9769.3282   -37543.444    273.09451   0.36355101   -27774.115    6251.0225     292.7794   -19.042504 -0.067077503    293.39802    60.220192    68.603392    4485.3228 
  349600      1398400    9703.8645   -37534.729    271.26451   0.45467635   -27830.865    6320.8208    294.01467   -18.300702  -0.16306772    294.58372    60.140192    68.557269    4508.9923 
  349800      1399200    9894.5918    -37568.52    276.59616   0.52265005   -27673.928    6190.2411    293.68414   -17.949362  -0.37260215    294.23237    60.060192    68.467231    4532.6464 
  350000      1400000    9851.5785    -37608.85    275.39375   0.47873274   -27757.272    6250.9281    299.28967   -18.328067  -0.38773142    299.85058    59.980192    68.547751    4556.4124 
  350200      1400800    9885.5384   -37449.524    276.34308   0.40702973   -27563.986    6055.7432    302.34255   -17.544193   -0.4982817    302.85155    59.900192    68.553493    4580.4212 
  350400      1401600    9732.6044   -37460.145    272.06792   0.38216165    -27727.54    6239.8818     302.7891   -17.883538  -0.65155367    303.31746    59.820192    68.486805    4604.6254 
  350600      1402400    9861.2737     -37512.6    275.66477    0.4762874   -27651.326    6176.6179    303.88271   -18.153565  -0.25339111    304.42457    59.740192    68.438437    4628.8743 
  350800      1403200    9822.9479   -37563.011    274.59341   0.41736717   -27740.064    6311.6079    301.34816   -17.869537  -0.11579142    301.87754    59.660192    68.285664    4653.0591 
  351000      1404000    9964.5943   -37533.907    278.55303    0.4361096   -27569.313    6153.8358    302.70749   -18.514683  -0.40101999    303.27344    59.580192    68.245547    4677.2654 
  351200      1404800    9827.1561   -37382.242    274.71104   0.51357201   -27555.086    6166.0837    302.53933    -18.40427  -0.79633106    303.09965    59.500192    68.160581    4701.4888 
  351400      1405600     9945.218   -37336.595    278.01138   0.52726927   -27391.377    6029.9351    302.16983   -18.598975   -0.3714271    302.74192    59.420192    68.070361    4725.6192 
  351600      1406400    9794.2896   -37303.139    273.79228   0.46094339   -27508.849    6135.2436    306.09302   -18.390793  -0.53669218    306.64547    59.340192    68.101891     4750.069 
  351800      1407200    9814.8334    -37377.19    274.36657   0.49505922   -27562.357    6199.2248    307.83912   -19.022344 -0.099330361     308.4263    59.260192    68.072772     4774.654 
  352000      1408000    9874.5919   -37449.442    276.03708   0.39097973    -27574.85    6248.3438    306.57503   -18.528698  -0.85486127    307.13563    59.180192    67.955895    4799.3212 
  352200      1408800    9922.4357   -37418.647    277.37451   0.38336227   -27496.212    6160.1592    310.36019   -18.212872  -0.63253441    310.89476    59.100192    67.983299    4824.0815 
  352400      1409600    9847.4139   -37402.665    275.27734   0.53835148   -27555.251     6240.359    310.63711   -18.154722  -0.64002008    311.16783    59.020192    67.911101    4848.9885 
  352600      1410400    9828.0084   -37303.563    274.73487   0.57623737   -27475.554    6190.5946    310.31919   -17.465201   -1.0428139    310.81203    58.940192    67.820935    4873.8411 
  352800      1411200     9760.605    -37312.66    272.85065   0.42414302   -27552.055    6290.0099    310.64294   -17.708859  -0.81998725    311.14838    58.860192    67.750545    4898.8105 
  353000      1412000    9844.5449   -37320.454    275.19713   0.48399028   -27475.909    6220.8458    312.48423   -17.742541  -0.83083967    312.98863    58.780192    67.723124    4923.8115 
  353200      1412800    9833.7856   -37273.872    274.89637   0.49753737   -27440.087    6220.4911    311.14763   -18.309259  -0.82684683    311.68696    58.700192    67.605933    4948.8165 
  353400      1413600    9778.1443   -37372.552    273.34095   0.51912419   -27594.408    6393.7123    311.76667   -18.501679  -0.55051159    312.31566    58.620192    67.543896    4973.7656 
  353600      1414400    9807.1779   -37276.103    274.15257   0.46250518   -27468.925    6253.7871    316.20746   -19.005816  -0.18269065    316.77817    58.540192    67.591397    4998.9811 
  353800      1415200    9780.2603   -37172.867    273.40011   0.47098422   -27392.607    6219.9356    314.41523   -19.461658  -0.91363855    315.01829    58.460192    67.461114    5024.1345 
  354000      1416000    9828.0931   -37140.094    274.73723   0.46971629   -27312.001    6160.4474    314.89807    -19.83583  -0.84687121    315.52333    58.380192    67.395544    5049.2823 
  354200      1416800     9844.654   -37378.664    275.20018   0.40790054    -27534.01    6424.0438    312.91016   -19.834001  -0.52388797    313.53856    58.300192    67.258836    5074.4708 
  354400      1417600    9867.5867   -37338.938    275.84125   0.46643265   -27471.351    6390.4365     312.1933   -20.219707   -1.0335964     312.8491    58.220192    67.159137    5099.6315 
  354600      1418400    9839.9432   -37197.406     275.0685   0.56654389   -27357.463    6294.3101    313.03614   -20.623868   -1.2377553    313.71723    58.140192    67.103941    5124.6696 
  354800      1419200    9823.6287   -37253.138    274.61244   0.51467465   -27429.509    6353.7289    317.32744   -21.149338   -1.4382908    318.03469    58.060192    67.147297    5150.0592 
  355000      1420000    9823.9777   -37304.943    274.62219   0.37390127   -27480.965    6439.4074    316.62613   -20.685161   -0.7902646    317.30208    57.980192    67.046365    5175.4485 
  355200      1420800     9796.386   -37213.984    273.85089    0.4381177   -27417.598    6399.0411    316.82866   -20.488565  -0.91185145    317.49175    57.900192    66.971785    5200.9801 
  355400      1421600    9712.5653   -37270.261    271.50774   0.57063122   -27557.696    6523.5248    321.08356   -21.235186  -0.34266614    321.78518    57.820192    67.014454     5226.362 
  355600      1422400    9846.7847   -37129.355    275.25975   0.54842546    -27282.57    6273.8931    321.16133   -21.433378  0.046083195    321.87574    57.740192    66.937041    5252.1571 
  355800      1423200    9849.6873   -37085.498    275.34089   0.40742375   -27235.811    6269.7376    319.45487   -19.963611  -0.44401046    320.07836    57.660192    66.805688    5277.7171 
  356000      1424000    9907.0852   -37278.177     276.9454    0.4076338   -27371.092    6408.7431    321.72805   -20.214193  -0.41442895    322.36272    57.580192    66.790955    5303.4583 
  356200      1424800    9805.3465   -37266.172    274.10137   0.44751697   -27460.825    6543.7923    319.38597   -20.290282  -0.39592528    320.03008    57.500192    66.644308    5329.1912 
  356400      1425600    9719.2233   -37359.982    271.69386   0.45474112   -27640.758    6701.1342    324.67905   -20.411376   -0.8027833      325.321    57.420192    66.715477    5355.0358 
  356600      1426400    9862.6184   -37323.876    275.70237   0.52109306   -27461.257    6555.2787     323.9787   -20.645188  -0.24815669    324.63592    57.340192    66.615904    5381.0946 
  356800      1427200    9849.5445    -37260.27    275.33689   0.50613732   -27410.726    6528.6121    324.18742   -21.107057  -0.58147791    324.87433    57.260192    66.542715    5407.0767 
  357000      1428000    9864.5792    -37299.12    275.75718   0.56648795    -27434.54    6535.9805    328.77288   -20.953499   -1.2137996    329.44215    57.180192    66.593224    5433.2275 
  357200      1428800    9746.7856   -37352.581    272.46434   0.40534837   -27605.795    6715.9833    330.59771    -21.38912   -1.1385002    331.29086    57.100192    66.566045    5459.7254 
  357400      1429600     9721.379   -37154.857    271.75412   0.50511942   -27433.478    6531.1244    334.79854   -21.499979  -0.72809415    335.48896    57.020192    66.605991    5486.3332 
  357600      1430400    9808.2512   -37110.212    274.18257    0.4392368   -27301.961    6445.8541    332.88683   -21.105188   -1.6349063     333.5592    56.940192    66.470855    5513.0597 
  357800      1431200    9829.8289   -37082.815    274.78576    0.5244906   -27252.986    6425.0519    332.60123   -21.220652   -2.0198242    333.28363    56.860192    66.382981    5539.7164 
  358000      1432000    9770.6201   -37151.951    273.13062    0.5213407   -27381.331    6587.3409    331.75838   -21.375944   -1.6427371    332.45038    56.780192    66.279174    5566.3123 
  358200      1432800    9838.7286   -37235.847    275.03454   0.50424555   -27397.118    6596.0512    335.24659   -21.307837   -1.4462474    335.92617    56.700192    66.298482     5593.059 
  358400      1433600    9769.2474   -37195.116    273.09225   0.54478287   -27425.868    6690.5396    331.19253   -20.784861  -0.78381306    331.84502    56.620192    66.101878     5619.699 
  358600      1434400    9873.0221   -37119.918    275.99319   0.47143795   -27246.896    6588.1108    325.68123   -20.788912  -0.77126993    326.34497    56.540192    65.864734    5645.9519 
  358800      1435200    9843.3684   -37098.842    275.16425   0.45302392   -27255.473    6579.2291    330.41492   -21.588099  -0.80070199    331.12038    56.460192    65.921174    5672.3497 
  359000      1436000    9851.0768   -37094.815    275.37973   0.43119163   -27243.738    6560.6099    334.04466   -21.241865  -0.75505271    334.72022    56.380192    65.944026    5699.0384 
  359200      1436800    9857.0961   -36988.189    275.54799    0.4952969   -27131.093    6493.4621    332.10007   -21.218748  -0.49940073    332.77761    56.300192    65.808523    5725.7049 
  359400      1437600    9933.1587   -37101.489    277.67427   0.55365593   -27168.331     6567.213    330.80435    -21.60156  -0.83501452    331.50994    56.220192    65.692304    5752.2215 
  359600      1438400    9873.8237   -36971.978     276.0156    0.5414529   -27098.154    6544.1797    328.45843   -21.384459   -1.6074216    329.15774    56.140192    65.545098    5778.7296 
  359800      1439200    9704.0504   -36886.865    271.26971   0.46623404   -27182.815    6671.4235      327.052   -21.066695   -1.4645297    327.73307    56.060192    65.424394    5804.9522 
  360000      1440000    9891.6071   -36826.884    276.51272   0.57335221   -26935.277    6388.6959    333.61251   -22.283045   -1.5233445    334.35933    55.980192    65.533715     5831.477 
  360200      1440800    9948.6349   -36887.663    278.10689   0.42259776   -26939.028    6380.2633    337.57352   -23.043779   -1.1957835    338.36124    55.900192    65.568056    5858.2455 
  360400      1441600    9830.8948    -36904.55    274.81556   0.53386629   -27073.655    6535.9739    338.16568   -22.296717   -1.3165233     338.9025    55.820192     65.50352     5885.465 
  360600      1442400     9837.035   -37049.717     274.9872   0.46610241   -27212.682    6684.5538    339.86976   -22.596614   -1.3339236    340.62272    55.740192    65.472669    5912.5997 
  360800      1443200    9744.8734   -37083.201    272.41089   0.35108385   -27338.327    6782.7982    345.38918   -23.420351  -0.68709802      346.183    55.660192    65.551535    5940.0465 
  361000      1444000    9831.0093    -36946.63    274.81876   0.49044584   -27115.621    6606.4486    343.60196   -22.995265 -0.048720888    344.37057    55.580192    65.419751    5967.6148 
  361200      1444800    9855.9312   -36946.022    275.51543   0.44368603   -27090.091    6610.3689    343.49747   -22.803869 -0.057896933    344.25359    55.500192    65.336408    5995.1077 
  361400      1445600    9778.1514   -37005.393    273.34115   0.51284846   -27227.241    6745.5881     346.6146   -23.388731  -0.54690118    347.40324    55.420192    65.346398    6022.7888 
  361600      1446400    9917.8045    -36942.06    277.24505   0.43212531   -27024.255    6553.3568    348.30776   -23.590992  -0.40961021    349.10599    55.340192    65.315049    6050.6591 
  361800      1447200    9784.6744   -36938.215     273.5235   0.51409246   -27153.541    6697.5171    349.54499    -23.78067    -0.930161    350.35423    55.260192    65.270712    6078.6923 
  362000      1448000    9756.8687   -36894.753    272.74621   0.67353742   -27137.884       6695.9    350.82026   -24.216844   -1.2394712    351.65729    55.180192    65.227943     6106.739 
  362200      1448800    9851.7423   -36995.083    275.39833   0.50163792   -27143.341    6728.4033    350.79092   -24.463077  -0.69170541    351.64355    55.100192     65.14755    6134.8228 
  362400      1449600    9830.1638   -36783.483    274.79512   0.57567807   -26953.319     6567.926    350.66683   -24.126792   -1.1875754    351.49785    55.020192    65.063387    6162.8697 
  362600      1450400    9846.5655   -36886.515    275.25362   0.45511008   -27039.949    6669.4196    352.18328   -23.972057   -1.0511876    352.99976    54.940192    65.026299    6191.0317 
  362800      1451200    9864.6399   -36893.856    275.75887   0.50286409   -27029.216    6670.0572    353.78389   -24.159409  0.018911401    354.60784    54.860192    64.992244    6219.3216 
  363000      1452000    9810.1502   -36814.891    274.23565   0.58027499   -27004.741    6688.5443    352.23433   -23.218953  0.064346091    352.99879    54.780192    64.866271    6247.6484 
  363200      1452800    9950.2996   -36857.081    278.15343   0.60054313   -26906.781    6628.9878    351.21274   -23.302068   0.61879017    351.98545    54.700192    64.757319    6275.8939 
  363400      1453600     9902.149   -36895.723    276.80742   0.59043412   -26993.574    6628.8709    362.51256     -24.6354    1.3475889    363.35118    54.620192    65.002054    6304.5406 
  363600      1454400    9812.8479   -36693.628    274.31107   0.52096121   -26880.781    6593.1384    358.00335   -24.394771    1.3479719    358.83606    54.540192    64.793051    6333.4864 
  363800      1455200    9833.7478   -36741.036    274.89531   0.46732424   -26907.288    6622.5508    360.62059   -25.045124    1.5596741     361.4926    54.460192    64.788952     6362.257 
  364000      1456000    9897.6661   -36715.442     276.6821    0.4007271   -26817.776    6546.3204    361.99441   -25.491685    1.3951819    362.89354    54.380192    64.748979    6391.3402 
  364200      1456800    9819.8353   -36631.677    274.50639   0.54906441   -26811.842    6533.6849    365.28004   -25.913557    1.3712935    366.20063    54.300192    64.763467    6420.5082 
  364400      1457600    9785.6236   -36751.509    273.55003   0.54805321   -26965.885    6683.2067    368.38428   -25.564688    1.8215463    369.27477    54.220192    64.771299    6449.9166 
  364600      1458400    9906.0942   -36783.278     276.9177   0.57137788   -26877.184    6615.1653    369.23957    -24.87262    1.0020703    370.07771    54.140192    64.714241    6479.3934 
  364800      1459200    9854.3174   -36719.639    275.47032   0.49009296   -26865.322    6609.6699     371.6665   -24.781771      1.69715    372.49564    54.060192    64.703324    6509.2224 
  365000      1460000    9793.5183   -36839.405    273.77072   0.45350842   -27045.887    6795.6394    373.93959   -24.359232    1.2959386     374.7344    53.980192    64.687289    6539.0845 
  365200      1460800     9827.204   -36659.041    274.71238   0.53624517   -26831.837    6637.6737    371.60151   -23.805753    1.2997703    372.36552    53.900192    64.539607    6569.0064 
  365400      1461600     9813.437    -36862.15    274.32754   0.45131208   -27048.713    6876.8257     372.2007   -23.662559     1.432994    372.95487    53.820192    64.476445    6598.7421 
  365600      1462400    9807.2244   -36568.639    274.15387   0.52334892   -26761.415    6617.5023    372.24458   -23.609856     1.915133    372.99748    53.740192    64.397663    6628.6847 
  365800      1463200     9790.409   -36710.488     273.6838    0.6499838   -26920.079     6832.304    369.72357   -23.339684    1.3736031    370.46207    53.660192    64.245222    6658.4243 
  366000      1464000    9793.0328   -36769.003    273.75715   0.58101941    -26975.97    6833.6089    377.51225   -24.932568    1.9630135    378.33977    53.580192    64.390299    6688.4245 
  366200      1464800    9779.3433   -36599.615    273.37447   0.65924973   -26820.271    6725.7569    376.03057   -24.302204    1.9360355    376.82002    53.500192    64.266878    6718.5633 
  366400      1465600    9940.5466   -36585.476    277.88079   0.62457769    -26644.93    6558.5005    378.20051   -24.774959    1.8621835    379.01569    53.420192    64.249611    6748.7328 
  366600      1466400    9725.0096   -36756.539    271.85561   0.42851633   -27031.529    6981.6542    377.62654   -24.875185   0.91782557    378.44606    53.340192    64.153336    6779.0586 
  366800      1467200    9803.2547   -36692.164     274.0429   0.60147479    -26888.91    6831.0072     380.9362   -24.953641   0.88946553    381.75367    53.260192    64.167839    6809.5524 
  367000      1468000    9834.7872   -36731.476    274.92437   0.66003595   -26896.688    6881.7437    379.60054   -25.495749   0.76288443    380.45655    53.180192    64.050779    6839.9519 
  367200      1468800    9732.7415    -36792.62    272.07175   0.66495668   -27059.879    7045.0844    382.38832   -25.719556   0.58492312    383.25275    53.100192     64.05067     6870.509 
  367400      1469600    9948.0738     -36508.9    278.09121   0.63778481   -26560.826    6553.0397    385.00627    -25.45996   0.99171783    385.84845    53.020192    64.044833    6901.2512 
  367600      1470400    9768.7831   -36471.887    273.07927   0.45135265   -26703.104    6699.7395    387.64843   -25.524423    1.0399118    388.48923    52.940192    64.040284    6932.2606 
  367800      1471200    9838.8286   -36668.568    275.03734   0.43008354    -26829.74    6823.6864    390.55061   -25.210722    1.2825767    391.36556    52.860192    64.042465    6963.4072 
  368000      1472000     9828.252   -36688.009    274.74168   0.66998162   -26859.757    6871.0974     391.3628   -24.673451    1.4982738    392.14266    52.780192    63.984668    6994.7807 
  368200      1472800    9830.8705   -36811.083    274.81488   0.77803239   -26980.213    6995.4845     393.5452    -25.41832    1.8628859     394.3696    52.700192    63.968295    7026.2526 
  368400      1473600    9886.4027   -36785.786    276.36724   0.50441182   -26899.383    6908.5315    397.03198   -25.518986    1.8481644    397.85554    52.620192    63.987893    7058.0297 
  368600      1474400    9817.1197   -36742.991    274.43048   0.46327101   -26925.871    6962.1394    397.85515   -25.935856    2.5095293    398.70752    52.540192    63.932235    7089.9117 
  368800      1475200    9769.9856   -36505.157    273.11288    0.5041317   -26735.171    6813.6267    396.94489   -26.647106    2.4285782    397.84571    52.460192    63.827612     7121.705 
  369000      1476000     9905.081   -36552.339    276.88938   0.70108932   -26647.258    6743.1048    397.98195   -26.599254    2.9716522    398.88091    52.380192    63.777189    7153.5894 
  369200      1476800    9772.9794   -36627.938    273.19657   0.62988742   -26854.959    6984.0728    397.62179   -26.832358    2.8948374    398.53663    52.300192    63.687352    7185.5162 
  369400      1477600    9935.4885    -36618.66     277.7394    0.6598781   -26683.172    6808.4464    400.59284   -28.284964    2.4152136    401.59743    52.220192    63.694804    7217.4081 
  369600      1478400    9822.3701   -36619.996    274.57725   0.56580728   -26797.625    7003.9918    396.44353   -26.964977    2.7502937    397.36903    52.140192    63.493993    7249.3347 
  369800      1479200    9821.8483   -36593.281    274.56267   0.52489752   -26771.433     6975.136    399.69751   -26.523893    2.1100716    400.58217    52.060192    63.505796    7281.2076 
  370000      1480000    9816.5219   -36527.441    274.41377   0.37408511    -26710.92     6875.368     406.1051   -26.116217    1.0588629    406.94536    51.980192    63.607602     7313.617 
  370200      1480800    9992.5124   -36545.913    279.33346   0.52328421     -26553.4    6729.0576    407.90288   -25.436264   0.80115622    408.69598    51.900192     63.57762    7346.2566 
  370400      1481600     9821.243   -36534.617    274.54575   0.65308817   -26713.374    6921.5649    407.75106   -25.928713   0.76356734    408.57534    51.820192    63.494173    7378.8892 
  370600      1482400    9879.8363   -36616.424    276.18368   0.63831758   -26736.588    6911.3795    413.49058   -25.340213   0.93554151    414.26738    51.740192    63.576802    7411.8574 
  370800      1483200     9846.407   -36626.244    275.24919   0.55490349   -26779.837    7013.5325      411.288   -25.809781   0.51805438    412.09736    51.660192    63.434802    7444.8897 
  371000      1484000    9877.1053   -36424.883    276.10734    0.5369016   -26547.778    6822.1439    410.69728   -26.020972     1.390205    411.52312    51.580192    63.338395    7477.7729 
  371200      1484800    9875.2992   -36370.356    276.05685   0.57542549   -26495.057    6800.7778    410.71265    -25.37926    1.7611304     411.4998    51.500192    63.257729    7510.4962 
  371400      1485600    9854.3752   -36458.549    275.47193   0.59652837   -26604.174     6940.698    410.78494    -25.53758    1.9057155    411.58239    51.420192    63.180089    7543.4141 
  371600      1486400    9873.8072   -36443.723    276.01514   0.66431819   -26569.916    6908.3656    413.28604   -26.694413     2.008176    414.15211    51.340192    63.173509    7576.4524 
  371800      1487200    9864.9295   -36389.658    275.76697   0.61094342   -26524.728    6900.2638    413.06225   -25.929325    2.0284513    413.88026    51.260192    63.085742    7609.5979 
  372000      1488000    9881.3809   -36412.322    276.22686    0.6960383   -26530.941    6870.4259    418.83269   -26.829237    1.4972829    419.69379    51.180192    63.171843    7642.9816 
  372200      1488800    9762.4266   -36403.189    272.90158   0.56530258   -26640.762    6984.3636     421.4217   -27.294877    2.3311452    422.31114    51.100192    63.166624    7676.6278 
  372400      1489600    9809.7395   -36439.525    274.22418   0.58096697   -26629.786    6985.4118    423.29239   -27.264611    1.9507075    424.17404    51.020192     63.13985    7710.4824 
  372600      1490400    9777.8539   -36394.816    273.33283   0.63331966   -26616.962    7043.7686    420.07836   -27.199081    2.2427214    420.96395    50.940192    62.968133    7744.2853 
  372800      1491200    9860.4124   -36523.302     275.6407   0.66518928    -26662.89    7057.0417    425.44015   -27.544249    2.5219974    426.33832    50.860192    63.041687    7778.2401 
  373000      1492000     9942.253   -36443.509    277.92849    0.5714115   -26501.256    6907.7694    427.24122   -28.011697    2.4835227    428.16572    50.780192    63.013898    7812.3925 
  373200      1492800    9777.6096   -36348.239    273.32601   0.67390452   -26570.629    7031.6107    425.59877   -28.208688    2.0181459    426.53735    50.700192    62.887373    7846.5331 
  373400      1493600    9829.5788    -36425.49    274.77877   0.59349091   -26595.911    7067.5033    427.57731   -28.109204    2.0099592    428.50498    50.620192    62.863591    7880.7486 
  373600      1494400    9850.2594   -36375.084    275.35688   0.65571691   -26524.825    7011.5835    429.07937   -27.854069    2.3907285    429.98916    50.540192    62.825996    7915.2125 
  373800      1495200     9955.205    -36408.26    278.29056   0.63471063   -26453.055    6985.3925    428.10594   -27.077269    1.5440625    428.96417    50.460192    62.716711    7949.5463 
  374000      1496000    9879.8768   -36290.265    276.18481   0.53713197   -26410.389    6991.3436    427.00008   -26.126969    2.5531241    427.80627    50.380192    62.603628    7983.7115 
  374200      1496800    9922.0078   -36263.178    277.36255     0.728997    -26341.17    6906.2544     431.1819   -26.148591    2.2510193    431.97991    50.300192    62.642875    8018.0573 
  374400      1497600    9835.2181   -36389.953    274.93641   0.57591543   -26554.735     7103.701    435.30763   -26.288173    2.4653608    436.10764    50.220192     62.68081    8052.8621 
  374600      1498400    9682.2783   -36187.722    270.66109   0.62818604   -26505.443    7060.3167    437.76193   -26.731864     2.848413    438.58661    50.140192    62.671638     8087.906 
  374800      1499200    9846.8436   -36223.732    275.26139   0.65006833   -26376.889    7014.0727    433.80792   -26.570235    2.6687169    434.62905    50.060192    62.478565    8122.7628 
  375000      1500000     9914.087   -36288.646    277.14113   0.66508926   -26374.559    7031.4017    434.80565   -26.895271    2.9682295    435.64678    49.980192    62.427643    8157.6155 
  375200      1500800    9805.2009   -36291.632     274.0973   0.64121735   -26486.431    7222.0251     431.3001   -26.853265    2.4508257     432.1422    49.900192    62.247512    8192.4278 
  375400      1501600    9827.2276   -36240.634    274.71304   0.63541811   -26413.407    7144.5744    434.47052   -26.539891    1.7413955    435.28385    49.820192    62.257273    8227.0492 
  375600      1502400    9781.0245   -36206.471    273.42147   0.71841967   -26425.447    7212.4274     432.7585   -26.490114    1.6263504    433.57156    49.740192     62.12835    8261.7795 
  375800      1503200    9821.1623   -36219.112    274.54349   0.64737698    -26397.95    7243.6739    430.90415   -26.395638    1.7710201    431.71548    49.660192     61.99532    8296.3025 
  376000      1504000    9896.5582   -36046.865    276.65113   0.61765917   -26150.307    7016.8035    432.19568   -26.047623    2.3117631    432.98606    49.580192    61.951622    8330.9171 
  376200      1504800    9927.7993   -36159.083    277.52445   0.56533019   -26231.284    7131.6763    432.27409   -25.309129    1.9815166     433.0189    49.500192     61.87256    8365.5666 
  376400      1505600    9862.6468   -36143.947    275.70316   0.64457465   -26281.301     7174.428    435.45774    -25.30164    2.3671703     436.1986    49.420192    61.883409    8400.4655 
  376600      1506400    9838.6229   -36133.545    275.03159   0.65088613   -26294.922    7180.6525    438.68758   -26.307763    1.7644019    439.47924    49.340192    61.897141    8435.4487 
  376800      1507200    9857.7462   -36090.044    275.56617   0.73977852   -26232.298     7159.432    438.39475   -25.921108    1.3288778    439.16242    49.260192    61.808089     8470.727 
  377000      1508000    9901.3779   -35976.706    276.78586   0.55636692   -26075.328    7017.4675    440.10581    -26.55959    1.9828565    440.91095    49.180192    61.778047    8505.8761 
  377200      1508800    9845.5883   -36021.151     275.2263   0.46135807   -26175.563    7164.1352    439.19358   -26.994561    2.3054548    440.02843    49.100192    61.672832    8541.1504 
  377400      1509600    9810.0429   -35943.541    274.23266   0.61139312   -26133.498    7195.1919    436.06954   -27.286516    2.1214258    436.92756    49.020192    61.504236    8576.1626 
  377600      1510400    9856.9427   -35944.268    275.54371   0.65743752   -26087.325    7145.0554    438.91093   -27.998611    1.6829551    439.80627    48.940192    61.506485     8611.328 
  377800      1511200    9837.7993   -35998.952    275.00857   0.64764302   -26161.152    7320.6597    433.46175   -27.569138    1.7153522    434.34099    48.860192    61.270334    8646.2478 
  378000      1512000    9852.7454    -35923.43    275.42637   0.63322324   -26070.684    7228.6972    436.47251   -27.506393    2.1272037    437.34355    48.780192    61.276122    8681.1621 
  378200      1512800     9830.077   -35838.641    274.79269   0.49985071   -26008.564    7204.1248    436.36462   -27.729052    2.9761562    437.25489    48.700192    61.193589    8716.1217 
  378400      1513600    9922.7165   -35886.706    277.38237   0.63192149    -25963.99    7180.5786    437.54325   -27.273664    2.4192273    438.39913    48.620192    61.146281    8751.1509 
  378600      1514400    9850.9621   -35796.692    275.37652   0.66063295    -25945.73    7183.2498    438.68233   -26.976331    2.8499558    439.52023    48.540192    61.098312    8786.3539 
  378800      1515200    9721.0114   -35841.009    271.74385   0.59294123   -26119.997    7400.1183    438.07203   -26.319667    3.7885152    438.87832    48.460192    60.999972    8821.4734 
  379000      1516000    9865.2723   -35929.797    275.77655   0.64168869   -26064.525     7345.252    440.58927   -27.658758    3.4339276    441.46994    48.380192    60.994018    8856.6641 
  379200      1516800    9812.1788   -35938.384    274.29236   0.68485686   -26126.205    7382.7297    445.25283   -28.856372    3.0412925    446.19729    48.300192    61.049086    8892.1378 
  379400      1517600    9855.0628   -35802.403    275.49115    0.5465054    -25947.34    7252.2985    444.28378   -28.202883    3.4084744    445.19108    48.220192    60.940337    8927.7949 
  379600      1518400    9869.8925   -35752.501    275.90571   0.58967347   -25882.608    7237.9217    443.20039   -28.674733     2.696362    444.13522    48.140192    60.830169    8963.3085 
  379800      1519200    9962.0131   -35919.062    278.48087   0.64769182   -25957.049    7279.5816    448.56544   -29.057099    3.1906639     449.5169    48.060192    60.903932    8999.1172 
  380000      1520000    9884.7435   -35866.492    276.32086   0.59750541   -25981.749    7302.0854    451.54771   -28.398232    2.6898653    452.44782    47.980192    60.907672    9035.1877 
  380200      1520800    9823.8669   -35765.538    274.61909   0.63107755   -25941.671    7270.4413    453.66461   -28.689695    3.0701797    454.58124    47.900192    60.888627    9071.5134 
  380400      1521600    9827.1356   -35898.392    274.71047   0.69326768   -26071.256     7396.191    456.71975    -28.57765    4.2347073    457.63254    47.820192    60.895807    9107.9536 
  380600      1522400    9751.5855   -35775.772    272.59852   0.67820851   -26024.187    7367.5309    458.11445   -28.115661    3.7906948    458.99206    47.740192     60.85465    9144.6765 
  380800      1523200    9776.1564   -35828.616    273.28538   0.57891717   -26052.459    7428.0483    458.57725   -27.529332    4.2609933    459.42258    47.660192    60.786951     9181.463 
  381000      1524000    9908.6118   -35754.345    276.98808   0.61276279   -25845.734    7223.7258    461.33646   -28.978416    4.3630522    462.26628    47.580192      60.7882    9218.4001 
  381200      1524800    9862.0393   -35705.512    275.68618   0.53986555   -25843.473    7252.5376    461.81263   -28.881723    4.0618907     462.7327    47.500192    60.721526    9255.4405 
  381400      1525600    9940.5265   -35628.769    277.88023   0.59442793   -25688.242    7133.2814    461.75084   -28.593189    4.1785812    462.65416    47.420192    60.639282    9292.4818 
  381600      1526400    9838.5473   -35882.704    275.02947   0.72603153   -26044.157    7503.0541    463.26813   -29.086777    4.4666662    464.20185    47.340192    60.603502    9329.5029 
  381800      1527200    9729.8225   -35888.737    271.99015   0.69078168   -26158.915    7617.0666    465.93414   -29.842089    3.7161525    466.90361    47.260192    60.600695    9366.7297 
  382000      1528000     9842.274   -35857.536    275.13365   0.68654308   -26015.262    7515.1145    465.79682   -29.772501    3.2856322     466.7589    47.180192     60.51656    9404.1673 
  382200      1528800    9905.0586   -35738.834    276.88875   0.64898958   -25833.776     7380.663    465.28411   -29.012668    2.6176106    466.19512    47.100192    60.420452    9441.4848 
  382400      1529600    9904.8398   -35669.614    276.88263   0.61335709   -25764.774    7322.2096    467.40804   -29.579976    2.0005143    468.34737    47.020192    60.401945    9478.7634 
  382600      1530400    9741.0422   -35708.272    272.30379   0.63686623    -25967.23    7584.3835    465.51947   -29.654824    1.8862831    466.46687    46.940192    60.268217    9516.2574 
  382800      1531200    9967.9315   -35660.007    278.64632   0.77347363   -25692.075    7323.2885    467.06833   -29.886354    2.0800555    468.02814    46.860192    60.232824    9553.6185 
  383000      1532000    9814.0191   -35527.891    274.34381   0.62423802   -25713.872    7336.9539    470.50195   -29.878554     2.564802    471.45667    46.780192    60.250782    9591.1394 
  383200      1532800    9925.2676   -35805.824    277.45368   0.66072007   -25880.557    7488.1636    474.55048   -30.628522    3.1131282    475.54806    46.700192    60.287679    9629.0568 
  383400      1533600    9827.1459   -35770.042    274.71076   0.56945592   -25942.896    7545.9863    477.76049   -30.603755    2.3230725    478.74531    46.620192    60.299029    9667.2573 
  383600      1534400    9759.2211   -35801.846    272.81197   0.64965415   -26042.625    7683.6086    477.73898   -31.292183    4.1663355    478.78084    46.540192    60.220044    9705.5857 
  383800      1535200    9847.9205   -35765.871     275.2915   0.58110353   -25917.951    7539.3603     481.8881   -31.702087    4.8306667    482.95393    46.460192    60.259275    9743.9397 
  384000      1536000    9764.1582   -35596.509    272.94998   0.72245457   -25832.351    7540.6381    478.35726   -30.752318    4.4979297    479.36584    46.380192    60.076758    9782.5205 
  384200      1536800    9848.5742   -35742.983    275.30977   0.68180715   -25894.408    7636.6217    478.47913   -31.099704    5.6362462    479.52188    46.300192    60.001217     9820.821 
  384400      1537600     9825.527   -35796.023     274.6655    0.6619857   -25970.496    7748.8363    478.63714   -30.203161    4.9633532    479.61483    46.220192    59.923872    9859.2189 
  384600      1538400    9789.0655   -35759.688    273.64625   0.71099958   -25970.623    7746.5607    481.71244   -29.771364    4.4722367    482.65227    46.140192    59.930656    9897.7232 
  384800      1539200    9843.5473   -35673.118    275.16925   0.62959993    -25829.57    7582.2123      486.219   -30.021277    5.0165219    487.17077    46.060192    59.979757    9936.6383 
  385000      1540000    9861.6989   -35714.267    275.67666   0.63162775   -25852.568    7632.8375    487.17648   -29.494338    5.0480414    488.09458    45.980192    59.926151    9975.5823 
  385200      1540800    9946.0656   -35788.585    278.03507   0.68436234   -25842.519    7553.6841    494.66409   -30.321936    5.4754363     495.6228    45.900192    60.061243    10014.902 
  385400      1541600    9730.8419   -35713.506    272.01865     0.725996   -25982.664     7701.188    496.95134   -30.376021    5.6563131    497.91097    45.820192    60.046619    10054.622 
  385600      1542400    9841.7842   -35744.276    275.11996   0.73957122   -25902.492    7696.6959    494.48965   -29.778147    6.2447032    495.42482    45.740192    59.895586    10094.346 
  385800      1543200     9983.227   -35665.455    279.07389   0.61637598   -25682.228    7510.8177    494.98708   -30.373048    7.2483616    495.97103    45.660192    59.831193    10134.005 
  386000      1544000    9812.6406    -35452.36    274.30527   0.67151733   -25639.719    7490.0411    496.23121   -30.797648    7.5701421    497.24361    45.580192    59.787552    10173.699 
  386200      1544800    9920.3399   -35427.815    277.31593   0.78653413   -25507.475    7429.4875    493.86512   -30.565308    6.3231092    494.85046    45.500192    59.639176    10213.378 
  386400      1545600      10022.1   -35590.775    280.16056    0.7967067   -25568.675      7513.01    494.90588   -31.552378    5.0107363    495.93598    45.420192    59.590191    10252.966 
  386600      1546400    9914.4136   -35551.316    277.15026   0.74713399   -25636.903    7556.5191    499.55935   -32.238479    5.5854408    500.62967    45.340192    59.644296    10292.757 
  386800      1547200     9809.693   -35433.736    274.22287   0.58777841   -25624.043    7565.3933    500.90625   -32.960957    5.0859203     502.0153    45.260192    59.603886    10332.932 
  387000      1548000     9796.493   -35300.126    273.85388   0.73337749   -25503.633    7477.9479    501.33568   -33.688031    4.5076486    502.48648    45.180192    59.537348    10373.136 
  387200      1548800    9925.3187   -35568.225    277.45511   0.74837127   -25642.907    7546.7052    509.01692   -32.935363    6.2574597    510.11971    45.100192    59.675441    10413.778 
  387400      1549600    9992.8033   -35508.211    279.34159   0.63118396   -25515.408    7477.5353    507.72365   -32.349989    6.6415671    508.79656    45.020192    59.557636    10454.569 
  387600      1550400     9674.097   -35593.086    270.43239   0.74133241   -25918.989    7925.8935    507.51284   -32.128844    7.3336905    508.58168    44.940192    59.471497    10495.199 
  387800      1551200    9790.0297   -35489.308     273.6732   0.66663952   -25699.278    7671.2302    512.72651   -32.200945    6.6414252     513.7796    44.860192    59.540009    10536.243 
  388000      1552000    9934.1698   -35357.154    277.70253   0.62593011   -25422.984    7482.4919    509.63171    -32.07847    5.4268243    510.66913    44.780192    59.371138    10577.161 
  388200      1552800    9880.1813   -35411.824    276.19333   0.57082042   -25531.642    7606.8015    511.30182    -32.28721    6.8455448    512.36596    44.700192    59.339619    10618.143 
  388400      1553600    9821.4416   -35574.154     274.5513   0.64004021   -25752.712    7836.3005    513.43458   -33.668158    5.8579443    514.57062    44.620192    59.322609    10659.166 
  388600      1554400     9850.763   -35410.197    275.37096   0.73659866   -25559.434    7657.1398    515.31488   -32.499019    5.6551921    516.36962    44.540192    59.294009    10700.466 
  388800      1555200    9929.4219   -35362.942    277.56981   0.80773989    -25433.52    7596.3102    513.59033   -33.276325    5.3095156     514.6946    44.460192    59.166152    10741.647 
  389000      1556000    9781.2502   -35442.033    273.42778   0.68532975   -25660.783    7817.6591    516.72868   -33.831409    4.0490431    517.85084    44.380192     59.17633    10783.072 
  389200      1556800    9941.6195   -35319.686    277.91078    0.7800775   -25378.066    7560.4778    517.75118   -34.786396     4.645628    518.93927    44.300192    59.127428    10824.649 
  389400      1557600    9888.9887   -35330.318    276.43953   0.69653062   -25441.329    7648.4173     518.9594   -34.028848    5.0751634    520.09862    44.220192    59.080552    10866.147 
  389600      1558400    9837.4524   -35422.364    274.99887    0.6036151   -25584.912    7760.2974    523.94823   -35.115709    5.5920216    525.15344    44.140192    59.144976    10907.891 
  389800      1559200    9831.3304   -35382.928    274.82773   0.64006397   -25551.598    7758.9819    524.71543   -33.670455    6.0146613    525.82902    44.060192    59.084278    10949.952 
  390000      1560000    9721.2989   -35424.919    271.75188   0.66772432   -25703.621    7958.4231     524.1683   -34.730634    5.6639427    525.34817    43.980192    58.990539    10992.006 
  390200      1560800    9830.2084   -35385.395    274.79637   0.72156829   -25555.186    7827.7321    525.72692   -33.760507    5.9469397    526.84337    43.900192    58.953259    11034.083 
  390400      1561600    9848.0901   -35343.167    275.29624   0.75187814   -25495.077    7824.9429    524.75751    -33.01818    5.0374919    525.81939    43.820192    58.844003    11076.181 
  390600      1562400    9809.3346   -35438.782    274.21286   0.68180264   -25629.447    7942.8745    528.74163   -32.703392    5.5779059     529.7814    43.740192    58.877203     11118.43 
  390800      1563200    9803.9648   -35199.283    274.06275   0.64172475   -25395.318    7733.4436    530.00113   -32.482744    5.9411752    531.02883    43.660192    58.832844    11160.889 
  391000      1564000    9929.5748    -35335.69    277.57408   0.66988768   -25406.115    7791.3596     529.5911   -32.736557    6.5342581    530.64217    43.580192    58.741797    11203.285 
  391200      1564800    9756.5838   -35325.371    272.73825   0.79459312   -25568.787    7951.9901    532.51048   -32.881307    5.6426266    533.55453    43.500192    58.745007    11245.926 
  391400      1565600    9797.1988   -35089.708    273.87361   0.74146374   -25292.509    7752.3175     530.3153    -32.88473    5.8018143    531.36558    43.420192    58.602465    11288.437 
  391600      1566400    9842.1391   -35218.451    275.12988   0.62149347   -25376.312    7788.5638    536.19947    -34.20758    5.6350774    537.31907    43.340192    58.692565    11331.198 
  391800      1567200    9823.7831   -35121.929    274.61675   0.68598789   -25298.146    7743.6347    536.76297   -34.920934    5.2516774    537.92335    43.260192     58.62983    11374.184 
  392000      1568000    9810.8962   -35195.187    274.25651   0.66298666    -25384.29    7823.4459     539.9117   -35.062601    6.0770302    541.08314    43.180192     58.64011    11417.386 
  392200      1568800    9874.6583   -35064.468    276.03893   0.77517217    -25189.81    7544.1389     548.2001   -35.999102    4.9348406    549.40298    43.100192     58.79782    11460.979 
  392400      1569600    9873.7908   -35188.023    276.01468   0.70053317   -25314.232    7720.5096    547.80012   -35.929535    4.2846805    548.99387    43.020192    58.706131    11504.961 
  392600      1570400    9659.7411   -35221.232    270.03108   0.68560345   -25561.491    8005.4073    548.13396   -36.015818    5.0218943    549.33887    42.940192    58.635988    11548.847 
  392800      1571200     9798.813   -35219.269    273.91873   0.67481214   -25420.456    7887.9113    549.39896   -35.676289    5.7443138    550.58606    42.860192    58.591622    11592.828 
  393000      1572000    9838.9369   -35059.566    275.04037   0.67140467   -25220.629    7792.9488    545.53886   -35.242953    5.0424519    546.69931    42.780192    58.400572    11636.825 
  393200      1572800    10002.075   -35000.076    279.60078   0.76066843   -24998.001    7654.2274    542.97177   -35.077325    5.7811526    544.13434    42.700192    58.247287    11680.455 
  393400      1573600    9892.0568   -35043.389    276.52529   0.77760637   -25151.333    7793.6537    546.76815    -34.20705    5.7179267    547.86698    42.620192    58.273934    11724.064 
  393600      1574400    9963.1714     -34970.2    278.51325   0.68561522   -25007.029    7699.2217    546.32984   -34.868099    5.5882655    547.46992    42.540192    58.182589    11767.895 
  393800      1575200    9759.4347   -34940.267    272.81794   0.72257579   -25180.832     7900.937    547.37716   -34.074102    5.6188721    548.46547    42.460192    58.131034    11811.808 
  394000      1576000    9937.4265   -34852.843    277.79357   0.71798443   -24915.417    7720.0347    544.58075   -34.715176    5.5903319    545.71475    42.380192    57.972442    11855.664 
  394200      1576800    9941.4041   -35114.897    277.90476   0.74014118   -25173.493    7951.6396    548.96101   -36.119147    5.7582514     550.1781    42.300192    58.019966    11899.543 
  394400      1577600    9682.9366   -35010.237    270.67949   0.72525122   -25327.301    8119.2247    551.00229   -35.692876    5.4157248     552.1837    42.220192    57.997269    11943.678 
  394600      1578400    9896.4519    -34964.17    276.64816    0.7795887   -25067.718    7881.3476    552.41508   -35.952887    5.8547223    553.61476    42.140192    57.958156    11987.849 
  394800      1579200    9750.7549   -34936.611     272.5753   0.76012291   -25185.856    8055.3907    551.55474    -36.64379    6.2634175    552.80614    42.060192    57.855053     12032.19 
  395000      1580000    9902.8462   -34936.713     276.8269   0.81274888   -25033.867    7861.5827    556.91407   -37.499073    5.9201243    558.20651    41.980192    57.929349    12076.724 
  395200      1580800    9682.9191   -35061.871      270.679   0.76064478   -25378.951    8222.3221     558.7718   -37.347165    6.1275872    560.05204    41.900192    57.902078    12121.459 
  395400      1581600    9780.8277   -34916.046    273.41596   0.81119909   -25135.218    7952.3248    563.39462    -36.45578    4.3196968    564.58939    41.820192    57.951717    12166.368 
  395600      1582400     9823.072    -34887.59    274.59688   0.63827225   -25064.518     7956.148    561.63011   -37.128774    4.1432932    562.87129    41.740192    57.822628    12211.336 
  395800      1583200     9725.004   -34816.566    271.85545   0.71580272   -25091.562    7964.0275    565.63841   -36.687307    5.3858269    566.85252    41.660192    57.856378    12256.562 
  396000      1584000    9811.2382   -34764.525    274.26607   0.74392161   -24953.287    7871.5613    565.59765    -36.72341    4.2780025    566.80474    41.580192    57.775013    12302.057 
  396200      1584800    9900.7716   -34633.917    276.76891   0.81299055   -24733.145    7704.2566    565.04109    -37.07013    3.7811265    566.26842    41.500192    57.679689    12347.308 
  396400      1585600    9891.5806   -34733.828    276.51198   0.75639122   -24842.248    7847.7946     565.6697   -37.428224    4.8121542    566.92702    41.420192    57.618506    12392.576 
  396600      1586400    9693.8276   -34804.523    270.98394   0.60673406   -25110.696    8144.8739    566.76728   -37.656264    4.4999594    568.03468    41.340192    57.570154    12438.048 
  396800      1587200     9781.794   -34730.126    273.44298   0.64215059   -24948.332    8014.5739    567.51962   -37.752699    6.2036381    568.80776    41.260192    57.512242    12483.653 
  397000      1588000     9749.388   -34723.212    272.53709   0.60944999   -24973.824     8044.841    569.92696   -38.433889    7.0608539    571.26505    41.180192     57.50245    12529.321 
  397200      1588800    9925.5655   -34800.951    277.46201   0.78093465   -24875.386    8002.4013    569.17896   -38.272392    7.0690948    570.50805    41.100192    57.400822    12574.936 
  397400      1589600    9931.0791   -34680.541    277.61613   0.85134652   -24749.462    7884.4738    571.55246   -37.363171    6.5887107    572.81029    41.020192      57.3866    12620.582 
  397600      1590400    9856.7058   -34613.175    275.53708   0.77156892   -24756.469    7960.0566    570.22395   -37.021825    8.1085772    571.48204    40.940192     57.26865    12666.313 
  397800      1591200     9869.625   -34594.814    275.89823   0.74795886   -24725.189    7929.7258    573.16863   -35.075941    7.4920748    574.28976    40.860192    57.268871    12712.097 
  398000      1592000    9865.9534    -34560.25    275.79559   0.67580415   -24694.296    7987.9086    570.41514   -35.803871    6.3573748    571.57306    40.780192    57.111251    12757.911 
  398200      1592800    9840.3034   -34605.013    275.07857   0.80480859    -24764.71    8077.6438    571.93666   -36.797155    6.9134252    573.16086    40.700192    57.076616    12803.569 
  398400      1593600    9881.8002    -34575.37    276.23858     0.892447   -24693.569    8001.3334    575.05755   -36.224238    4.9837824     576.2189    40.620192    57.083989    12849.394 
  398600      1594400    9848.0022   -34524.589    275.29378   0.76711611   -24676.587    7987.1153    577.73436   -36.468061    5.6750432    578.91201    40.540192    57.080935    12895.573 
  398800      1595200    9775.8423    -34696.84     273.2766   0.81990758   -24920.998    8178.0894    583.73815   -37.197506    5.5622946    584.94856    40.460192    57.173408    12942.156 
  399000      1596000    9827.6313   -34693.451    274.72433   0.72200568    -24865.82     8121.889    586.59012   -37.533549    5.8119972    587.81844    40.380192    57.175404    12989.155 
  399200      1596800      9831.58   -34547.275    274.83471   0.73708407   -24715.695    8060.3069    584.06053   -37.341773     5.708547    585.28087    40.300192    57.022902    13035.982 
  399400      1597600     9846.421   -34607.409    275.24958   0.73563085   -24760.988    8091.0401    587.63658   -37.340027    6.0636947    588.85295    40.220192    57.044962     13082.88 
  399600      1598400    9763.4165   -34538.228    272.92925   0.90303234   -24774.812    8134.9949    588.69385   -37.601452    4.8312851    589.91327    40.140192    56.995256    13130.067 
  399800      1599200    9939.0829   -34584.668    277.83988   0.76566806   -24645.585    8021.3539    590.62426    -37.18971    5.5448916    591.81994    40.060192    56.969733    13177.386 
  400000      1600000    9775.6975   -34400.469    273.27255   0.69464025   -24624.772    8086.5788    588.44507   -36.328722    4.6288264    589.58358    39.980192    56.825837    13224.686 
Loop time of 5593.02 on 8 procs for 400000 steps with 12002 atoms

Performance: 24.717 ns/day, 0.971 hours/ns, 71.518 timesteps/s
82.8% CPU use with 8 MPI tasks x no OpenMP threads

MPI task timing breakdown:
Section |  min time  |  avg time  |  max time  |%varavg| %total
---------------------------------------------------------------
Pair    | 97.774     | 1045.9     | 2501.4     |2932.2 | 18.70
Bond    | 0.67494    | 6.6536     | 15.741     | 236.4 |  0.12
Neigh   | 2522.8     | 2530       | 2537.1     |  13.5 | 45.24
Comm    | 128.7      | 1142.5     | 1773.6     |1598.4 | 20.43
Output  | 383.12     | 383.23     | 383.42     |   0.5 |  6.85
Modify  | 21.523     | 470.21     | 1017.6     |2095.9 |  8.41
Other   |            | 14.56      |            |       |  0.26

Nlocal:        1500.25 ave        3205 max           0 min
Histogram: 4 0 0 0 0 0 0 0 1 3
Nghost:        4471.00 ave        7895 max        1071 min
Histogram: 4 0 0 0 0 0 0 0 0 4
Neighs:       184668.0 ave      454029 max           0 min
Histogram: 4 0 0 0 0 0 1 1 1 1

Total # of neighbors = 1477343
Ave neighs/atom = 123.09140
Ave special neighs/atom = 185.06916
Neighbor list builds = 40000
Dangerous builds = 0

Total wall time: 1:33:13
